n = 100;
k = 200;
m = 2481;
edges = array2d(1..m, 1..2, [
  1, 2,
  1, 3,
  1, 4,
  1, 5,
  1, 6,
  1, 7,
  1, 10,
  1, 11,
  1, 12,
  1, 13,
  1, 14,
  1, 15,
  1, 16,
  1, 17,
  1, 19,
  1, 20,
  1, 21,
  1, 22,
  1, 23,
  1, 24,
  1, 25,
  1, 26,
  1, 27,
  1, 28,
  1, 31,
  1, 32,
  1, 33,
  1, 34,
  1, 37,
  1, 39,
  1, 41,
  1, 43,
  1, 44,
  1, 45,
  1, 46,
  1, 47,
  1, 48,
  1, 49,
  1, 50,
  1, 51,
  1, 55,
  1, 56,
  1, 59,
  1, 60,
  1, 64,
  1, 65,
  1, 68,
  1, 69,
  1, 73,
  1, 77,
  1, 83,
  1, 85,
  1, 86,
  1, 90,
  1, 94,
  1, 98,
  1, 99,
  2, 5,
  2, 6,
  2, 9,
  2, 10,
  2, 12,
  2, 13,
  2, 16,
  2, 17,
  2, 18,
  2, 19,
  2, 20,
  2, 21,
  2, 30,
  2, 31,
  2, 33,
  2, 34,
  2, 35,
  2, 37,
  2, 41,
  2, 42,
  2, 44,
  2, 46,
  2, 48,
  2, 49,
  2, 51,
  2, 55,
  2, 59,
  2, 60,
  2, 61,
  2, 63,
  2, 64,
  2, 65,
  2, 66,
  2, 67,
  2, 68,
  2, 69,
  2, 73,
  2, 74,
  2, 76,
  2, 77,
  2, 78,
  2, 80,
  2, 83,
  2, 88,
  2, 89,
  2, 90,
  2, 91,
  2, 92,
  2, 93,
  2, 95,
  2, 98,
  3, 9,
  3, 10,
  3, 12,
  3, 14,
  3, 15,
  3, 16,
  3, 18,
  3, 19,
  3, 20,
  3, 21,
  3, 26,
  3, 27,
  3, 29,
  3, 31,
  3, 33,
  3, 35,
  3, 37,
  3, 39,
  3, 40,
  3, 41,
  3, 42,
  3, 43,
  3, 51,
  3, 52,
  3, 57,
  3, 58,
  3, 59,
  3, 60,
  3, 62,
  3, 63,
  3, 69,
  3, 70,
  3, 71,
  3, 73,
  3, 74,
  3, 75,
  3, 76,
  3, 77,
  3, 78,
  3, 79,
  3, 80,
  3, 81,
  3, 82,
  3, 84,
  3, 85,
  3, 95,
  3, 96,
  3, 98,
  3, 99,
  3, 100,
  4, 5,
  4, 6,
  4, 9,
  4, 11,
  4, 12,
  4, 14,
  4, 18,
  4, 21,
  4, 22,
  4, 24,
  4, 28,
  4, 35,
  4, 38,
  4, 39,
  4, 40,
  4, 44,
  4, 45,
  4, 47,
  4, 48,
  4, 49,
  4, 51,
  4, 55,
  4, 57,
  4, 58,
  4, 60,
  4, 61,
  4, 63,
  4, 64,
  4, 65,
  4, 66,
  4, 70,
  4, 71,
  4, 74,
  4, 75,
  4, 78,
  4, 79,
  4, 80,
  4, 83,
  4, 84,
  4, 87,
  4, 90,
  4, 93,
  4, 94,
  4, 95,
  4, 99,
  4, 100,
  5, 8,
  5, 11,
  5, 14,
  5, 17,
  5, 20,
  5, 21,
  5, 23,
  5, 24,
  5, 26,
  5, 27,
  5, 30,
  5, 32,
  5, 33,
  5, 37,
  5, 38,
  5, 39,
  5, 41,
  5, 48,
  5, 49,
  5, 53,
  5, 54,
  5, 58,
  5, 59,
  5, 64,
  5, 65,
  5, 68,
  5, 73,
  5, 79,
  5, 83,
  5, 84,
  5, 86,
  5, 94,
  5, 96,
  5, 98,
  5, 99,
  6, 11,
  6, 12,
  6, 14,
  6, 16,
  6, 18,
  6, 21,
  6, 22,
  6, 23,
  6, 26,
  6, 27,
  6, 30,
  6, 32,
  6, 36,
  6, 40,
  6, 41,
  6, 44,
  6, 50,
  6, 51,
  6, 52,
  6, 56,
  6, 57,
  6, 59,
  6, 60,
  6, 61,
  6, 62,
  6, 63,
  6, 68,
  6, 69,
  6, 73,
  6, 74,
  6, 76,
  6, 77,
  6, 79,
  6, 80,
  6, 84,
  6, 86,
  6, 87,
  6, 88,
  6, 89,
  6, 92,
  6, 93,
  6, 96,
  6, 97,
  6, 98,
  6, 99,
  7, 8,
  7, 11,
  7, 16,
  7, 19,
  7, 21,
  7, 23,
  7, 24,
  7, 25,
  7, 26,
  7, 27,
  7, 28,
  7, 29,
  7, 30,
  7, 31,
  7, 32,
  7, 33,
  7, 35,
  7, 43,
  7, 44,
  7, 45,
  7, 49,
  7, 55,
  7, 56,
  7, 58,
  7, 60,
  7, 61,
  7, 62,
  7, 65,
  7, 66,
  7, 67,
  7, 72,
  7, 74,
  7, 75,
  7, 80,
  7, 81,
  7, 82,
  7, 87,
  7, 92,
  7, 96,
  7, 98,
  8, 10,
  8, 14,
  8, 16,
  8, 17,
  8, 20,
  8, 28,
  8, 32,
  8, 33,
  8, 34,
  8, 35,
  8, 36,
  8, 37,
  8, 38,
  8, 39,
  8, 40,
  8, 42,
  8, 44,
  8, 45,
  8, 48,
  8, 51,
  8, 55,
  8, 56,
  8, 57,
  8, 58,
  8, 60,
  8, 61,
  8, 62,
  8, 65,
  8, 67,
  8, 72,
  8, 73,
  8, 75,
  8, 76,
  8, 79,
  8, 81,
  8, 84,
  8, 85,
  8, 86,
  8, 87,
  8, 89,
  8, 92,
  8, 93,
  8, 96,
  8, 98,
  9, 13,
  9, 15,
  9, 18,
  9, 20,
  9, 22,
  9, 23,
  9, 24,
  9, 25,
  9, 26,
  9, 27,
  9, 33,
  9, 35,
  9, 36,
  9, 37,
  9, 39,
  9, 45,
  9, 50,
  9, 53,
  9, 55,
  9, 56,
  9, 57,
  9, 58,
  9, 59,
  9, 60,
  9, 63,
  9, 65,
  9, 66,
  9, 68,
  9, 70,
  9, 71,
  9, 74,
  9, 76,
  9, 77,
  9, 78,
  9, 80,
  9, 81,
  9, 82,
  9, 83,
  9, 86,
  9, 91,
  9, 92,
  9, 94,
  9, 98,
  9, 100,
  10, 15,
  10, 17,
  10, 20,
  10, 22,
  10, 23,
  10, 25,
  10, 28,
  10, 29,
  10, 30,
  10, 31,
  10, 33,
  10, 36,
  10, 40,
  10, 41,
  10, 42,
  10, 43,
  10, 44,
  10, 45,
  10, 48,
  10, 49,
  10, 50,
  10, 53,
  10, 55,
  10, 56,
  10, 57,
  10, 58,
  10, 59,
  10, 61,
  10, 63,
  10, 64,
  10, 66,
  10, 67,
  10, 68,
  10, 69,
  10, 73,
  10, 74,
  10, 75,
  10, 76,
  10, 79,
  10, 80,
  10, 81,
  10, 82,
  10, 83,
  10, 84,
  10, 85,
  10, 90,
  10, 93,
  10, 100,
  11, 12,
  11, 13,
  11, 15,
  11, 18,
  11, 19,
  11, 25,
  11, 26,
  11, 29,
  11, 33,
  11, 36,
  11, 38,
  11, 39,
  11, 40,
  11, 41,
  11, 42,
  11, 48,
  11, 49,
  11, 51,
  11, 52,
  11, 53,
  11, 55,
  11, 57,
  11, 58,
  11, 60,
  11, 61,
  11, 63,
  11, 64,
  11, 65,
  11, 66,
  11, 67,
  11, 68,
  11, 73,
  11, 74,
  11, 76,
  11, 78,
  11, 81,
  11, 82,
  11, 84,
  11, 85,
  11, 86,
  11, 88,
  11, 90,
  11, 92,
  11, 95,
  11, 96,
  11, 98,
  12, 13,
  12, 14,
  12, 15,
  12, 16,
  12, 17,
  12, 19,
  12, 21,
  12, 23,
  12, 28,
  12, 30,
  12, 31,
  12, 33,
  12, 35,
  12, 37,
  12, 38,
  12, 40,
  12, 43,
  12, 47,
  12, 49,
  12, 52,
  12, 54,
  12, 55,
  12, 56,
  12, 58,
  12, 59,
  12, 61,
  12, 62,
  12, 63,
  12, 64,
  12, 65,
  12, 66,
  12, 68,
  12, 69,
  12, 70,
  12, 72,
  12, 75,
  12, 76,
  12, 77,
  12, 79,
  12, 80,
  12, 81,
  12, 82,
  12, 83,
  12, 85,
  12, 89,
  12, 90,
  12, 91,
  12, 92,
  12, 93,
  12, 94,
  12, 96,
  12, 99,
  12, 100,
  13, 14,
  13, 16,
  13, 17,
  13, 19,
  13, 21,
  13, 26,
  13, 29,
  13, 32,
  13, 33,
  13, 37,
  13, 39,
  13, 41,
  13, 42,
  13, 45,
  13, 47,
  13, 48,
  13, 49,
  13, 53,
  13, 54,
  13, 56,
  13, 57,
  13, 59,
  13, 61,
  13, 63,
  13, 65,
  13, 66,
  13, 72,
  13, 73,
  13, 75,
  13, 76,
  13, 77,
  13, 78,
  13, 79,
  13, 81,
  13, 82,
  13, 83,
  13, 85,
  13, 91,
  13, 92,
  13, 93,
  13, 99,
  13, 100,
  14, 15,
  14, 20,
  14, 22,
  14, 24,
  14, 25,
  14, 26,
  14, 27,
  14, 29,
  14, 33,
  14, 34,
  14, 37,
  14, 40,
  14, 45,
  14, 46,
  14, 48,
  14, 54,
  14, 56,
  14, 57,
  14, 59,
  14, 60,
  14, 62,
  14, 65,
  14, 68,
  14, 69,
  14, 70,
  14, 72,
  14, 73,
  14, 79,
  14, 80,
  14, 82,
  14, 84,
  14, 89,
  14, 93,
  14, 94,
  14, 95,
  14, 98,
  14, 100,
  15, 16,
  15, 18,
  15, 19,
  15, 21,
  15, 22,
  15, 23,
  15, 26,
  15, 27,
  15, 29,
  15, 32,
  15, 34,
  15, 36,
  15, 37,
  15, 39,
  15, 40,
  15, 41,
  15, 42,
  15, 44,
  15, 45,
  15, 49,
  15, 50,
  15, 54,
  15, 55,
  15, 57,
  15, 58,
  15, 59,
  15, 60,
  15, 61,
  15, 62,
  15, 64,
  15, 65,
  15, 66,
  15, 69,
  15, 73,
  15, 74,
  15, 75,
  15, 76,
  15, 77,
  15, 78,
  15, 86,
  15, 87,
  15, 88,
  15, 89,
  15, 90,
  15, 91,
  15, 92,
  15, 95,
  15, 96,
  15, 97,
  15, 99,
  16, 17,
  16, 19,
  16, 21,
  16, 22,
  16, 23,
  16, 24,
  16, 25,
  16, 26,
  16, 29,
  16, 31,
  16, 32,
  16, 34,
  16, 35,
  16, 36,
  16, 38,
  16, 39,
  16, 41,
  16, 43,
  16, 44,
  16, 46,
  16, 48,
  16, 53,
  16, 56,
  16, 58,
  16, 60,
  16, 62,
  16, 63,
  16, 64,
  16, 65,
  16, 67,
  16, 70,
  16, 74,
  16, 75,
  16, 78,
  16, 80,
  16, 81,
  16, 82,
  16, 83,
  16, 85,
  16, 87,
  16, 91,
  16, 92,
  16, 93,
  16, 96,
  16, 99,
  17, 18,
  17, 24,
  17, 25,
  17, 27,
  17, 37,
  17, 41,
  17, 45,
  17, 46,
  17, 47,
  17, 48,
  17, 50,
  17, 51,
  17, 52,
  17, 58,
  17, 59,
  17, 61,
  17, 65,
  17, 66,
  17, 68,
  17, 74,
  17, 76,
  17, 77,
  17, 79,
  17, 80,
  17, 81,
  17, 83,
  17, 86,
  17, 87,
  17, 88,
  17, 89,
  17, 90,
  17, 92,
  17, 93,
  17, 94,
  17, 95,
  17, 100,
  18, 20,
  18, 21,
  18, 22,
  18, 31,
  18, 32,
  18, 33,
  18, 34,
  18, 35,
  18, 39,
  18, 41,
  18, 45,
  18, 46,
  18, 47,
  18, 48,
  18, 52,
  18, 54,
  18, 58,
  18, 59,
  18, 60,
  18, 64,
  18, 67,
  18, 69,
  18, 70,
  18, 71,
  18, 72,
  18, 73,
  18, 77,
  18, 78,
  18, 79,
  18, 81,
  18, 82,
  18, 85,
  18, 87,
  18, 88,
  18, 90,
  18, 91,
  18, 92,
  18, 93,
  18, 95,
  18, 96,
  18, 100,
  19, 20,
  19, 21,
  19, 24,
  19, 25,
  19, 27,
  19, 32,
  19, 33,
  19, 34,
  19, 37,
  19, 39,
  19, 41,
  19, 42,
  19, 44,
  19, 45,
  19, 47,
  19, 48,
  19, 49,
  19, 50,
  19, 51,
  19, 54,
  19, 58,
  19, 62,
  19, 63,
  19, 64,
  19, 65,
  19, 66,
  19, 67,
  19, 68,
  19, 70,
  19, 71,
  19, 73,
  19, 74,
  19, 75,
  19, 76,
  19, 78,
  19, 80,
  19, 81,
  19, 82,
  19, 83,
  19, 85,
  19, 86,
  19, 87,
  19, 91,
  19, 96,
  19, 97,
  19, 98,
  19, 100,
  20, 23,
  20, 24,
  20, 27,
  20, 31,
  20, 32,
  20, 33,
  20, 37,
  20, 39,
  20, 41,
  20, 44,
  20, 46,
  20, 48,
  20, 49,
  20, 51,
  20, 52,
  20, 54,
  20, 55,
  20, 56,
  20, 58,
  20, 60,
  20, 61,
  20, 65,
  20, 67,
  20, 68,
  20, 71,
  20, 72,
  20, 78,
  20, 79,
  20, 80,
  20, 81,
  20, 83,
  20, 85,
  20, 87,
  20, 88,
  20, 91,
  20, 93,
  20, 94,
  20, 95,
  20, 97,
  20, 98,
  21, 23,
  21, 25,
  21, 26,
  21, 27,
  21, 28,
  21, 32,
  21, 36,
  21, 37,
  21, 40,
  21, 43,
  21, 46,
  21, 50,
  21, 51,
  21, 52,
  21, 53,
  21, 55,
  21, 56,
  21, 57,
  21, 59,
  21, 60,
  21, 63,
  21, 64,
  21, 66,
  21, 68,
  21, 69,
  21, 72,
  21, 73,
  21, 74,
  21, 77,
  21, 79,
  21, 80,
  21, 81,
  21, 84,
  21, 88,
  21, 90,
  21, 96,
  21, 98,
  21, 99,
  22, 24,
  22, 26,
  22, 27,
  22, 29,
  22, 32,
  22, 33,
  22, 34,
  22, 39,
  22, 40,
  22, 41,
  22, 42,
  22, 43,
  22, 44,
  22, 47,
  22, 48,
  22, 49,
  22, 52,
  22, 53,
  22, 54,
  22, 55,
  22, 57,
  22, 58,
  22, 61,
  22, 63,
  22, 64,
  22, 65,
  22, 66,
  22, 67,
  22, 68,
  22, 76,
  22, 78,
  22, 79,
  22, 81,
  22, 83,
  22, 85,
  22, 86,
  22, 88,
  22, 89,
  22, 90,
  22, 91,
  22, 93,
  22, 94,
  22, 95,
  22, 97,
  22, 98,
  22, 100,
  23, 24,
  23, 26,
  23, 29,
  23, 30,
  23, 32,
  23, 35,
  23, 37,
  23, 38,
  23, 47,
  23, 48,
  23, 50,
  23, 51,
  23, 53,
  23, 55,
  23, 59,
  23, 60,
  23, 61,
  23, 62,
  23, 63,
  23, 64,
  23, 65,
  23, 71,
  23, 72,
  23, 75,
  23, 76,
  23, 78,
  23, 80,
  23, 83,
  23, 84,
  23, 86,
  23, 88,
  23, 90,
  23, 91,
  23, 92,
  23, 93,
  23, 94,
  23, 95,
  23, 96,
  24, 26,
  24, 28,
  24, 29,
  24, 32,
  24, 34,
  24, 37,
  24, 39,
  24, 41,
  24, 42,
  24, 43,
  24, 46,
  24, 49,
  24, 53,
  24, 54,
  24, 55,
  24, 56,
  24, 57,
  24, 58,
  24, 60,
  24, 61,
  24, 64,
  24, 66,
  24, 68,
  24, 69,
  24, 71,
  24, 75,
  24, 76,
  24, 77,
  24, 78,
  24, 80,
  24, 82,
  24, 83,
  24, 85,
  24, 86,
  24, 87,
  24, 90,
  24, 92,
  24, 96,
  24, 97,
  24, 98,
  24, 99,
  24, 100,
  25, 27,
  25, 28,
  25, 31,
  25, 32,
  25, 33,
  25, 37,
  25, 41,
  25, 44,
  25, 46,
  25, 51,
  25, 52,
  25, 55,
  25, 58,
  25, 59,
  25, 61,
  25, 62,
  25, 64,
  25, 65,
  25, 66,
  25, 67,
  25, 69,
  25, 74,
  25, 75,
  25, 77,
  25, 78,
  25, 79,
  25, 81,
  25, 83,
  25, 85,
  25, 87,
  25, 88,
  25, 90,
  25, 91,
  25, 94,
  25, 95,
  25, 96,
  25, 97,
  25, 98,
  25, 100,
  26, 32,
  26, 40,
  26, 42,
  26, 43,
  26, 46,
  26, 50,
  26, 51,
  26, 52,
  26, 54,
  26, 55,
  26, 56,
  26, 58,
  26, 60,
  26, 65,
  26, 67,
  26, 68,
  26, 70,
  26, 72,
  26, 73,
  26, 75,
  26, 76,
  26, 79,
  26, 80,
  26, 81,
  26, 82,
  26, 85,
  26, 86,
  26, 87,
  26, 89,
  26, 90,
  26, 91,
  26, 93,
  26, 96,
  26, 98,
  26, 99,
  26, 100,
  27, 29,
  27, 34,
  27, 35,
  27, 38,
  27, 40,
  27, 41,
  27, 42,
  27, 44,
  27, 49,
  27, 50,
  27, 55,
  27, 59,
  27, 61,
  27, 66,
  27, 68,
  27, 69,
  27, 70,
  27, 73,
  27, 74,
  27, 78,
  27, 84,
  27, 85,
  27, 86,
  27, 87,
  27, 88,
  27, 90,
  27, 91,
  27, 92,
  27, 94,
  27, 95,
  27, 96,
  27, 97,
  27, 98,
  27, 100,
  28, 31,
  28, 32,
  28, 35,
  28, 38,
  28, 43,
  28, 44,
  28, 48,
  28, 50,
  28, 55,
  28, 56,
  28, 57,
  28, 59,
  28, 64,
  28, 65,
  28, 66,
  28, 68,
  28, 69,
  28, 71,
  28, 75,
  28, 76,
  28, 79,
  28, 80,
  28, 84,
  28, 85,
  28, 87,
  28, 91,
  28, 92,
  28, 95,
  28, 96,
  28, 97,
  29, 30,
  29, 32,
  29, 34,
  29, 35,
  29, 36,
  29, 37,
  29, 40,
  29, 41,
  29, 42,
  29, 45,
  29, 48,
  29, 49,
  29, 51,
  29, 54,
  29, 59,
  29, 60,
  29, 61,
  29, 63,
  29, 64,
  29, 65,
  29, 67,
  29, 68,
  29, 74,
  29, 75,
  29, 76,
  29, 78,
  29, 79,
  29, 81,
  29, 82,
  29, 84,
  29, 85,
  29, 86,
  29, 92,
  29, 94,
  29, 95,
  29, 96,
  29, 99,
  30, 31,
  30, 32,
  30, 33,
  30, 38,
  30, 39,
  30, 41,
  30, 42,
  30, 43,
  30, 44,
  30, 46,
  30, 47,
  30, 50,
  30, 53,
  30, 54,
  30, 55,
  30, 56,
  30, 63,
  30, 64,
  30, 65,
  30, 66,
  30, 69,
  30, 70,
  30, 71,
  30, 73,
  30, 76,
  30, 80,
  30, 83,
  30, 84,
  30, 86,
  30, 87,
  30, 88,
  30, 89,
  30, 92,
  30, 93,
  30, 94,
  30, 95,
  30, 96,
  30, 98,
  30, 99,
  31, 34,
  31, 35,
  31, 49,
  31, 50,
  31, 53,
  31, 54,
  31, 59,
  31, 60,
  31, 61,
  31, 62,
  31, 64,
  31, 67,
  31, 72,
  31, 74,
  31, 76,
  31, 78,
  31, 79,
  31, 82,
  31, 83,
  31, 86,
  31, 87,
  31, 91,
  31, 93,
  31, 94,
  31, 95,
  31, 96,
  31, 100,
  32, 39,
  32, 44,
  32, 45,
  32, 46,
  32, 47,
  32, 48,
  32, 50,
  32, 51,
  32, 52,
  32, 55,
  32, 56,
  32, 57,
  32, 58,
  32, 60,
  32, 62,
  32, 64,
  32, 72,
  32, 74,
  32, 84,
  32, 85,
  32, 88,
  32, 91,
  32, 93,
  32, 94,
  32, 95,
  32, 96,
  32, 98,
  32, 99,
  32, 100,
  33, 35,
  33, 36,
  33, 37,
  33, 38,
  33, 40,
  33, 41,
  33, 42,
  33, 43,
  33, 45,
  33, 52,
  33, 58,
  33, 59,
  33, 62,
  33, 65,
  33, 66,
  33, 68,
  33, 69,
  33, 70,
  33, 71,
  33, 72,
  33, 74,
  33, 75,
  33, 76,
  33, 80,
  33, 84,
  33, 85,
  33, 91,
  33, 92,
  33, 95,
  33, 96,
  33, 97,
  33, 98,
  33, 99,
  33, 100,
  34, 35,
  34, 39,
  34, 47,
  34, 48,
  34, 49,
  34, 53,
  34, 55,
  34, 56,
  34, 57,
  34, 59,
  34, 60,
  34, 62,
  34, 64,
  34, 67,
  34, 68,
  34, 70,
  34, 71,
  34, 72,
  34, 75,
  34, 78,
  34, 80,
  34, 85,
  34, 87,
  34, 89,
  34, 91,
  34, 95,
  34, 96,
  34, 97,
  34, 98,
  34, 99,
  34, 100,
  35, 36,
  35, 38,
  35, 39,
  35, 40,
  35, 41,
  35, 43,
  35, 44,
  35, 47,
  35, 53,
  35, 55,
  35, 56,
  35, 58,
  35, 63,
  35, 65,
  35, 66,
  35, 67,
  35, 68,
  35, 69,
  35, 71,
  35, 73,
  35, 74,
  35, 75,
  35, 78,
  35, 83,
  35, 84,
  35, 85,
  35, 86,
  35, 87,
  35, 90,
  35, 91,
  35, 93,
  35, 95,
  35, 96,
  35, 98,
  35, 100,
  36, 38,
  36, 40,
  36, 43,
  36, 45,
  36, 49,
  36, 50,
  36, 53,
  36, 57,
  36, 59,
  36, 62,
  36, 66,
  36, 70,
  36, 73,
  36, 76,
  36, 77,
  36, 78,
  36, 79,
  36, 82,
  36, 83,
  36, 85,
  36, 86,
  36, 89,
  36, 90,
  36, 91,
  36, 92,
  36, 94,
  36, 95,
  37, 41,
  37, 45,
  37, 47,
  37, 50,
  37, 51,
  37, 53,
  37, 55,
  37, 60,
  37, 62,
  37, 63,
  37, 64,
  37, 65,
  37, 67,
  37, 68,
  37, 70,
  37, 73,
  37, 75,
  37, 76,
  37, 77,
  37, 78,
  37, 80,
  37, 81,
  37, 82,
  37, 83,
  37, 85,
  37, 86,
  37, 89,
  37, 92,
  37, 93,
  37, 94,
  37, 95,
  37, 97,
  37, 98,
  38, 40,
  38, 41,
  38, 42,
  38, 43,
  38, 45,
  38, 46,
  38, 47,
  38, 48,
  38, 51,
  38, 52,
  38, 53,
  38, 57,
  38, 58,
  38, 59,
  38, 63,
  38, 67,
  38, 68,
  38, 69,
  38, 71,
  38, 72,
  38, 73,
  38, 74,
  38, 75,
  38, 76,
  38, 78,
  38, 83,
  38, 85,
  38, 86,
  38, 89,
  38, 90,
  38, 91,
  38, 92,
  38, 94,
  38, 95,
  39, 46,
  39, 47,
  39, 50,
  39, 51,
  39, 52,
  39, 61,
  39, 65,
  39, 66,
  39, 70,
  39, 75,
  39, 80,
  39, 81,
  39, 82,
  39, 83,
  39, 84,
  39, 86,
  39, 87,
  39, 88,
  39, 89,
  39, 90,
  39, 91,
  39, 93,
  39, 96,
  39, 97,
  39, 100,
  40, 41,
  40, 42,
  40, 44,
  40, 45,
  40, 47,
  40, 49,
  40, 50,
  40, 51,
  40, 54,
  40, 56,
  40, 57,
  40, 59,
  40, 60,
  40, 62,
  40, 64,
  40, 65,
  40, 69,
  40, 71,
  40, 73,
  40, 77,
  40, 78,
  40, 84,
  40, 85,
  40, 86,
  40, 87,
  40, 88,
  40, 91,
  40, 92,
  40, 93,
  40, 94,
  40, 95,
  40, 98,
  41, 42,
  41, 46,
  41, 48,
  41, 49,
  41, 51,
  41, 53,
  41, 54,
  41, 55,
  41, 56,
  41, 58,
  41, 61,
  41, 62,
  41, 63,
  41, 64,
  41, 67,
  41, 68,
  41, 71,
  41, 73,
  41, 78,
  41, 81,
  41, 82,
  41, 84,
  41, 85,
  41, 88,
  41, 90,
  41, 91,
  41, 92,
  41, 93,
  41, 95,
  41, 96,
  42, 44,
  42, 45,
  42, 47,
  42, 49,
  42, 52,
  42, 56,
  42, 58,
  42, 62,
  42, 64,
  42, 65,
  42, 66,
  42, 67,
  42, 71,
  42, 72,
  42, 74,
  42, 75,
  42, 80,
  42, 83,
  42, 85,
  42, 86,
  42, 87,
  42, 91,
  42, 92,
  42, 93,
  42, 94,
  42, 95,
  43, 45,
  43, 46,
  43, 49,
  43, 50,
  43, 53,
  43, 55,
  43, 56,
  43, 61,
  43, 62,
  43, 64,
  43, 70,
  43, 72,
  43, 73,
  43, 75,
  43, 79,
  43, 80,
  43, 81,
  43, 84,
  43, 85,
  43, 86,
  43, 87,
  43, 88,
  43, 89,
  43, 91,
  43, 93,
  43, 94,
  43, 96,
  43, 97,
  43, 98,
  43, 100,
  44, 45,
  44, 46,
  44, 47,
  44, 49,
  44, 50,
  44, 54,
  44, 58,
  44, 60,
  44, 62,
  44, 63,
  44, 64,
  44, 65,
  44, 66,
  44, 69,
  44, 70,
  44, 71,
  44, 75,
  44, 76,
  44, 83,
  44, 86,
  44, 87,
  44, 91,
  44, 92,
  44, 95,
  44, 96,
  44, 97,
  44, 99,
  45, 48,
  45, 49,
  45, 50,
  45, 52,
  45, 53,
  45, 54,
  45, 56,
  45, 59,
  45, 63,
  45, 64,
  45, 66,
  45, 67,
  45, 70,
  45, 71,
  45, 73,
  45, 75,
  45, 77,
  45, 79,
  45, 81,
  45, 83,
  45, 86,
  45, 87,
  45, 91,
  45, 93,
  45, 94,
  45, 95,
  45, 96,
  45, 98,
  45, 99,
  45, 100,
  46, 48,
  46, 49,
  46, 50,
  46, 52,
  46, 54,
  46, 55,
  46, 57,
  46, 61,
  46, 62,
  46, 63,
  46, 68,
  46, 71,
  46, 74,
  46, 77,
  46, 80,
  46, 81,
  46, 85,
  46, 89,
  46, 91,
  46, 92,
  46, 93,
  46, 95,
  46, 96,
  46, 99,
  47, 48,
  47, 49,
  47, 51,
  47, 55,
  47, 56,
  47, 57,
  47, 59,
  47, 61,
  47, 63,
  47, 67,
  47, 68,
  47, 69,
  47, 70,
  47, 71,
  47, 74,
  47, 75,
  47, 77,
  47, 78,
  47, 79,
  47, 81,
  47, 82,
  47, 83,
  47, 86,
  47, 87,
  47, 88,
  47, 92,
  47, 93,
  47, 94,
  47, 95,
  47, 100,
  48, 53,
  48, 54,
  48, 58,
  48, 59,
  48, 60,
  48, 64,
  48, 65,
  48, 66,
  48, 67,
  48, 68,
  48, 71,
  48, 72,
  48, 73,
  48, 74,
  48, 76,
  48, 78,
  48, 79,
  48, 80,
  48, 82,
  48, 87,
  48, 89,
  48, 90,
  48, 91,
  48, 93,
  48, 94,
  48, 96,
  48, 98,
  49, 51,
  49, 53,
  49, 54,
  49, 55,
  49, 57,
  49, 58,
  49, 60,
  49, 61,
  49, 63,
  49, 64,
  49, 67,
  49, 69,
  49, 70,
  49, 72,
  49, 73,
  49, 74,
  49, 75,
  49, 76,
  49, 78,
  49, 79,
  49, 81,
  49, 82,
  49, 84,
  49, 87,
  49, 88,
  49, 89,
  49, 94,
  49, 95,
  49, 97,
  49, 98,
  50, 51,
  50, 53,
  50, 55,
  50, 57,
  50, 61,
  50, 62,
  50, 63,
  50, 65,
  50, 67,
  50, 70,
  50, 76,
  50, 77,
  50, 79,
  50, 81,
  50, 82,
  50, 83,
  50, 85,
  50, 86,
  50, 88,
  50, 90,
  50, 93,
  50, 97,
  50, 99,
  51, 52,
  51, 53,
  51, 54,
  51, 55,
  51, 58,
  51, 60,
  51, 61,
  51, 64,
  51, 70,
  51, 71,
  51, 72,
  51, 74,
  51, 75,
  51, 78,
  51, 79,
  51, 83,
  51, 84,
  51, 85,
  51, 87,
  51, 90,
  51, 92,
  51, 94,
  51, 95,
  51, 97,
  51, 98,
  51, 99,
  52, 53,
  52, 54,
  52, 55,
  52, 62,
  52, 63,
  52, 65,
  52, 70,
  52, 74,
  52, 75,
  52, 76,
  52, 77,
  52, 78,
  52, 80,
  52, 83,
  52, 84,
  52, 91,
  52, 92,
  52, 95,
  52, 99,
  52, 100,
  53, 56,
  53, 57,
  53, 60,
  53, 63,
  53, 64,
  53, 68,
  53, 70,
  53, 74,
  53, 75,
  53, 76,
  53, 77,
  53, 78,
  53, 79,
  53, 80,
  53, 81,
  53, 82,
  53, 83,
  53, 85,
  53, 92,
  53, 94,
  53, 95,
  53, 96,
  54, 56,
  54, 57,
  54, 58,
  54, 60,
  54, 62,
  54, 65,
  54, 66,
  54, 67,
  54, 70,
  54, 71,
  54, 75,
  54, 77,
  54, 78,
  54, 79,
  54, 81,
  54, 91,
  54, 94,
  54, 95,
  54, 96,
  54, 97,
  54, 98,
  54, 99,
  54, 100,
  55, 57,
  55, 59,
  55, 62,
  55, 63,
  55, 66,
  55, 69,
  55, 71,
  55, 72,
  55, 74,
  55, 75,
  55, 76,
  55, 81,
  55, 83,
  55, 87,
  55, 91,
  55, 93,
  55, 95,
  55, 98,
  55, 100,
  56, 58,
  56, 62,
  56, 63,
  56, 67,
  56, 69,
  56, 70,
  56, 73,
  56, 74,
  56, 75,
  56, 76,
  56, 78,
  56, 79,
  56, 82,
  56, 83,
  56, 84,
  56, 85,
  56, 88,
  56, 90,
  56, 91,
  56, 93,
  56, 96,
  56, 98,
  57, 59,
  57, 60,
  57, 63,
  57, 66,
  57, 67,
  57, 71,
  57, 72,
  57, 73,
  57, 74,
  57, 77,
  57, 79,
  57, 80,
  57, 83,
  57, 87,
  57, 88,
  57, 89,
  57, 92,
  57, 95,
  57, 96,
  57, 99,
  58, 60,
  58, 66,
  58, 69,
  58, 74,
  58, 76,
  58, 77,
  58, 83,
  58, 84,
  58, 89,
  58, 90,
  58, 91,
  58, 94,
  58, 95,
  58, 96,
  58, 97,
  59, 61,
  59, 62,
  59, 63,
  59, 64,
  59, 65,
  59, 66,
  59, 67,
  59, 68,
  59, 70,
  59, 71,
  59, 74,
  59, 75,
  59, 76,
  59, 78,
  59, 81,
  59, 82,
  59, 83,
  59, 84,
  59, 86,
  59, 89,
  59, 92,
  59, 94,
  59, 95,
  60, 62,
  60, 65,
  60, 67,
  60, 69,
  60, 70,
  60, 71,
  60, 72,
  60, 73,
  60, 74,
  60, 75,
  60, 78,
  60, 79,
  60, 82,
  60, 84,
  60, 90,
  60, 91,
  60, 93,
  60, 94,
  60, 99,
  61, 63,
  61, 65,
  61, 66,
  61, 68,
  61, 70,
  61, 75,
  61, 78,
  61, 79,
  61, 81,
  61, 82,
  61, 83,
  61, 85,
  61, 92,
  61, 93,
  61, 94,
  61, 98,
  61, 99,
  61, 100,
  62, 65,
  62, 67,
  62, 74,
  62, 75,
  62, 76,
  62, 79,
  62, 81,
  62, 84,
  62, 85,
  62, 87,
  62, 88,
  62, 89,
  62, 91,
  62, 92,
  62, 94,
  62, 97,
  62, 100,
  63, 68,
  63, 69,
  63, 72,
  63, 74,
  63, 77,
  63, 79,
  63, 84,
  63, 88,
  63, 90,
  63, 91,
  63, 94,
  63, 95,
  63, 96,
  63, 97,
  64, 66,
  64, 67,
  64, 69,
  64, 70,
  64, 71,
  64, 72,
  64, 75,
  64, 76,
  64, 79,
  64, 82,
  64, 83,
  64, 84,
  64, 89,
  64, 90,
  64, 91,
  64, 92,
  64, 97,
  64, 99,
  64, 100,
  65, 66,
  65, 68,
  65, 69,
  65, 74,
  65, 75,
  65, 76,
  65, 78,
  65, 82,
  65, 83,
  65, 84,
  65, 87,
  65, 88,
  65, 89,
  65, 90,
  65, 91,
  65, 92,
  65, 96,
  65, 98,
  65, 99,
  65, 100,
  66, 68,
  66, 70,
  66, 71,
  66, 72,
  66, 73,
  66, 74,
  66, 81,
  66, 84,
  66, 85,
  66, 86,
  66, 87,
  66, 89,
  66, 90,
  66, 91,
  66, 93,
  66, 95,
  66, 98,
  66, 100,
  67, 68,
  67, 69,
  67, 73,
  67, 75,
  67, 82,
  67, 84,
  67, 87,
  67, 88,
  67, 90,
  67, 91,
  67, 93,
  67, 95,
  67, 100,
  68, 69,
  68, 71,
  68, 72,
  68, 73,
  68, 74,
  68, 77,
  68, 78,
  68, 81,
  68, 82,
  68, 83,
  68, 84,
  68, 86,
  68, 87,
  68, 89,
  68, 90,
  68, 91,
  68, 92,
  68, 94,
  68, 95,
  68, 97,
  68, 100,
  69, 71,
  69, 74,
  69, 75,
  69, 76,
  69, 77,
  69, 79,
  69, 80,
  69, 81,
  69, 83,
  69, 85,
  69, 88,
  69, 89,
  69, 93,
  69, 95,
  69, 98,
  70, 71,
  70, 74,
  70, 75,
  70, 77,
  70, 81,
  70, 82,
  70, 83,
  70, 85,
  70, 88,
  70, 94,
  70, 95,
  70, 96,
  70, 98,
  70, 99,
  70, 100,
  71, 73,
  71, 74,
  71, 75,
  71, 77,
  71, 81,
  71, 82,
  71, 83,
  71, 84,
  71, 86,
  71, 92,
  71, 97,
  71, 98,
  71, 99,
  72, 73,
  72, 74,
  72, 77,
  72, 78,
  72, 80,
  72, 87,
  72, 88,
  72, 91,
  72, 92,
  72, 94,
  72, 96,
  72, 98,
  72, 99,
  72, 100,
  73, 75,
  73, 77,
  73, 78,
  73, 81,
  73, 83,
  73, 85,
  73, 86,
  73, 88,
  73, 89,
  73, 94,
  73, 95,
  73, 96,
  73, 97,
  73, 98,
  73, 100,
  74, 75,
  74, 77,
  74, 79,
  74, 80,
  74, 81,
  74, 84,
  74, 85,
  74, 86,
  74, 89,
  74, 90,
  74, 91,
  74, 92,
  74, 93,
  74, 94,
  74, 95,
  74, 97,
  74, 100,
  75, 77,
  75, 78,
  75, 79,
  75, 80,
  75, 82,
  75, 83,
  75, 84,
  75, 85,
  75, 86,
  75, 87,
  75, 89,
  75, 90,
  75, 95,
  75, 98,
  75, 99,
  75, 100,
  76, 82,
  76, 85,
  76, 86,
  76, 90,
  76, 91,
  76, 92,
  76, 94,
  76, 96,
  76, 99,
  77, 79,
  77, 80,
  77, 81,
  77, 83,
  77, 85,
  77, 86,
  77, 87,
  77, 88,
  77, 91,
  77, 95,
  77, 100,
  78, 79,
  78, 80,
  78, 81,
  78, 82,
  78, 83,
  78, 84,
  78, 86,
  78, 87,
  78, 89,
  78, 91,
  78, 92,
  78, 94,
  78, 97,
  78, 98,
  78, 99,
  79, 80,
  79, 81,
  79, 83,
  79, 84,
  79, 86,
  79, 87,
  79, 88,
  79, 90,
  79, 91,
  79, 93,
  79, 94,
  79, 97,
  79, 100,
  80, 83,
  80, 84,
  80, 87,
  80, 89,
  80, 91,
  80, 92,
  80, 94,
  80, 95,
  80, 97,
  80, 100,
  81, 82,
  81, 83,
  81, 84,
  81, 88,
  81, 90,
  81, 91,
  81, 92,
  81, 95,
  81, 97,
  82, 83,
  82, 84,
  82, 85,
  82, 86,
  82, 87,
  82, 88,
  82, 89,
  82, 90,
  82, 93,
  82, 95,
  82, 97,
  82, 98,
  82, 100,
  83, 85,
  83, 86,
  83, 89,
  83, 90,
  83, 91,
  83, 94,
  83, 96,
  83, 97,
  83, 98,
  83, 100,
  84, 87,
  84, 88,
  84, 91,
  84, 92,
  84, 93,
  84, 94,
  84, 95,
  84, 96,
  84, 97,
  85, 87,
  85, 89,
  85, 91,
  85, 93,
  85, 94,
  85, 96,
  85, 98,
  86, 87,
  86, 88,
  86, 89,
  86, 90,
  86, 92,
  86, 93,
  86, 96,
  86, 97,
  86, 100,
  87, 90,
  87, 91,
  87, 97,
  88, 89,
  88, 90,
  88, 92,
  88, 94,
  88, 96,
  88, 97,
  88, 99,
  89, 90,
  89, 92,
  89, 93,
  89, 95,
  89, 96,
  89, 97,
  89, 98,
  89, 99,
  90, 91,
  90, 93,
  90, 94,
  90, 96,
  90, 98,
  91, 92,
  91, 93,
  91, 94,
  91, 95,
  91, 97,
  91, 98,
  91, 99,
  92, 93,
  92, 95,
  92, 96,
  92, 99,
  93, 96,
  93, 97,
  93, 98,
  94, 95,
  94, 97,
  94, 98,
  94, 100,
  95, 96,
  95, 97,
  95, 98,
  95, 99,
  96, 99,
  96, 100,
  97, 98,
  97, 100,
  98, 99,
  98, 100,
  99, 100
]);
