n = 300;
k = 200;
m = 22359;
edges = array2d(1..m, 1..2, [
  1, 2,
  1, 3,
  1, 4,
  1, 5,
  1, 6,
  1, 7,
  1, 10,
  1, 11,
  1, 12,
  1, 13,
  1, 14,
  1, 15,
  1, 16,
  1, 17,
  1, 19,
  1, 20,
  1, 21,
  1, 22,
  1, 23,
  1, 24,
  1, 25,
  1, 26,
  1, 27,
  1, 28,
  1, 31,
  1, 32,
  1, 33,
  1, 34,
  1, 37,
  1, 39,
  1, 41,
  1, 43,
  1, 44,
  1, 45,
  1, 46,
  1, 47,
  1, 48,
  1, 49,
  1, 50,
  1, 51,
  1, 55,
  1, 56,
  1, 59,
  1, 60,
  1, 64,
  1, 65,
  1, 68,
  1, 69,
  1, 73,
  1, 77,
  1, 83,
  1, 85,
  1, 86,
  1, 90,
  1, 94,
  1, 98,
  1, 99,
  1, 103,
  1, 104,
  1, 107,
  1, 108,
  1, 110,
  1, 111,
  1, 114,
  1, 115,
  1, 116,
  1, 117,
  1, 118,
  1, 119,
  1, 128,
  1, 129,
  1, 131,
  1, 132,
  1, 133,
  1, 135,
  1, 139,
  1, 140,
  1, 142,
  1, 144,
  1, 146,
  1, 147,
  1, 149,
  1, 153,
  1, 157,
  1, 158,
  1, 159,
  1, 161,
  1, 162,
  1, 163,
  1, 164,
  1, 165,
  1, 166,
  1, 167,
  1, 171,
  1, 172,
  1, 174,
  1, 175,
  1, 176,
  1, 178,
  1, 181,
  1, 186,
  1, 187,
  1, 188,
  1, 189,
  1, 190,
  1, 191,
  1, 193,
  1, 196,
  1, 204,
  1, 205,
  1, 207,
  1, 209,
  1, 210,
  1, 211,
  1, 213,
  1, 214,
  1, 215,
  1, 216,
  1, 221,
  1, 222,
  1, 224,
  1, 226,
  1, 228,
  1, 230,
  1, 232,
  1, 234,
  1, 235,
  1, 236,
  1, 237,
  1, 238,
  1, 246,
  1, 247,
  1, 252,
  1, 253,
  1, 254,
  1, 255,
  1, 257,
  1, 258,
  1, 264,
  1, 265,
  1, 266,
  1, 268,
  1, 269,
  1, 270,
  1, 271,
  1, 272,
  1, 273,
  1, 274,
  1, 275,
  1, 276,
  1, 277,
  1, 279,
  1, 280,
  1, 290,
  1, 291,
  1, 293,
  1, 294,
  1, 295,
  1, 296,
  1, 297,
  1, 300,
  2, 4,
  2, 5,
  2, 7,
  2, 11,
  2, 14,
  2, 15,
  2, 17,
  2, 21,
  2, 28,
  2, 31,
  2, 32,
  2, 33,
  2, 37,
  2, 38,
  2, 40,
  2, 41,
  2, 42,
  2, 44,
  2, 48,
  2, 50,
  2, 51,
  2, 53,
  2, 54,
  2, 56,
  2, 57,
  2, 58,
  2, 59,
  2, 63,
  2, 64,
  2, 67,
  2, 68,
  2, 71,
  2, 72,
  2, 73,
  2, 76,
  2, 77,
  2, 80,
  2, 83,
  2, 86,
  2, 87,
  2, 88,
  2, 92,
  2, 93,
  2, 96,
  2, 99,
  2, 102,
  2, 105,
  2, 108,
  2, 109,
  2, 111,
  2, 112,
  2, 114,
  2, 115,
  2, 118,
  2, 120,
  2, 121,
  2, 125,
  2, 126,
  2, 127,
  2, 129,
  2, 136,
  2, 137,
  2, 141,
  2, 142,
  2, 146,
  2, 147,
  2, 152,
  2, 153,
  2, 156,
  2, 161,
  2, 167,
  2, 171,
  2, 172,
  2, 174,
  2, 182,
  2, 184,
  2, 186,
  2, 187,
  2, 193,
  2, 194,
  2, 196,
  2, 198,
  2, 200,
  2, 203,
  2, 204,
  2, 205,
  2, 208,
  2, 209,
  2, 212,
  2, 214,
  2, 218,
  2, 222,
  2, 223,
  2, 226,
  2, 232,
  2, 233,
  2, 234,
  2, 238,
  2, 239,
  2, 241,
  2, 242,
  2, 243,
  2, 244,
  2, 245,
  2, 250,
  2, 251,
  2, 255,
  2, 256,
  2, 258,
  2, 259,
  2, 261,
  2, 262,
  2, 266,
  2, 268,
  2, 269,
  2, 270,
  2, 271,
  2, 274,
  2, 275,
  2, 278,
  2, 279,
  2, 280,
  2, 281,
  2, 283,
  2, 286,
  2, 291,
  2, 294,
  2, 296,
  2, 298,
  2, 299,
  2, 300,
  3, 4,
  3, 5,
  3, 6,
  3, 7,
  3, 8,
  3, 9,
  3, 10,
  3, 11,
  3, 13,
  3, 21,
  3, 22,
  3, 23,
  3, 27,
  3, 33,
  3, 34,
  3, 36,
  3, 38,
  3, 39,
  3, 40,
  3, 43,
  3, 44,
  3, 45,
  3, 50,
  3, 52,
  3, 53,
  3, 58,
  3, 59,
  3, 60,
  3, 65,
  3, 70,
  3, 74,
  3, 76,
  3, 80,
  3, 84,
  3, 86,
  3, 87,
  3, 90,
  3, 98,
  3, 102,
  3, 103,
  3, 104,
  3, 105,
  3, 106,
  3, 107,
  3, 108,
  3, 109,
  3, 110,
  3, 112,
  3, 114,
  3, 115,
  3, 118,
  3, 121,
  3, 125,
  3, 126,
  3, 127,
  3, 128,
  3, 130,
  3, 131,
  3, 132,
  3, 135,
  3, 137,
  3, 142,
  3, 143,
  3, 145,
  3, 146,
  3, 149,
  3, 151,
  3, 154,
  3, 155,
  3, 156,
  3, 157,
  3, 159,
  3, 162,
  3, 163,
  3, 166,
  3, 168,
  3, 174,
  3, 176,
  3, 179,
  3, 181,
  3, 183,
  3, 184,
  3, 185,
  3, 186,
  3, 187,
  3, 188,
  3, 194,
  3, 196,
  3, 197,
  3, 198,
  3, 200,
  3, 206,
  3, 211,
  3, 214,
  3, 216,
  3, 217,
  3, 218,
  3, 219,
  3, 220,
  3, 221,
  3, 224,
  3, 226,
  3, 227,
  3, 229,
  3, 231,
  3, 232,
  3, 235,
  3, 237,
  3, 238,
  3, 239,
  3, 241,
  3, 242,
  3, 243,
  3, 244,
  3, 247,
  3, 252,
  3, 253,
  3, 255,
  3, 259,
  3, 261,
  3, 266,
  3, 268,
  3, 271,
  3, 273,
  3, 274,
  3, 276,
  3, 279,
  3, 280,
  3, 281,
  3, 282,
  3, 284,
  3, 287,
  3, 291,
  3, 292,
  3, 293,
  3, 294,
  3, 295,
  3, 296,
  3, 299,
  3, 300,
  4, 5,
  4, 8,
  4, 10,
  4, 11,
  4, 12,
  4, 13,
  4, 14,
  4, 16,
  4, 18,
  4, 19,
  4, 21,
  4, 22,
  4, 23,
  4, 24,
  4, 28,
  4, 29,
  4, 30,
  4, 31,
  4, 34,
  4, 35,
  4, 36,
  4, 37,
  4, 38,
  4, 39,
  4, 40,
  4, 45,
  4, 48,
  4, 55,
  4, 56,
  4, 57,
  4, 59,
  4, 62,
  4, 63,
  4, 69,
  4, 70,
  4, 73,
  4, 77,
  4, 80,
  4, 82,
  4, 83,
  4, 84,
  4, 85,
  4, 86,
  4, 92,
  4, 93,
  4, 95,
  4, 96,
  4, 97,
  4, 99,
  4, 101,
  4, 102,
  4, 104,
  4, 105,
  4, 107,
  4, 108,
  4, 109,
  4, 110,
  4, 111,
  4, 112,
  4, 117,
  4, 118,
  4, 120,
  4, 122,
  4, 125,
  4, 126,
  4, 128,
  4, 129,
  4, 130,
  4, 132,
  4, 134,
  4, 136,
  4, 139,
  4, 140,
  4, 142,
  4, 145,
  4, 146,
  4, 147,
  4, 148,
  4, 149,
  4, 151,
  4, 153,
  4, 155,
  4, 160,
  4, 162,
  4, 163,
  4, 165,
  4, 167,
  4, 169,
  4, 170,
  4, 172,
  4, 175,
  4, 179,
  4, 181,
  4, 184,
  4, 186,
  4, 187,
  4, 188,
  4, 190,
  4, 191,
  4, 193,
  4, 194,
  4, 195,
  4, 196,
  4, 197,
  4, 198,
  4, 200,
  4, 201,
  4, 202,
  4, 204,
  4, 207,
  4, 208,
  4, 209,
  4, 211,
  4, 212,
  4, 213,
  4, 214,
  4, 215,
  4, 217,
  4, 221,
  4, 222,
  4, 223,
  4, 224,
  4, 225,
  4, 226,
  4, 228,
  4, 231,
  4, 232,
  4, 233,
  4, 235,
  4, 236,
  4, 238,
  4, 240,
  4, 245,
  4, 248,
  4, 251,
  4, 252,
  4, 256,
  4, 258,
  4, 260,
  4, 261,
  4, 264,
  4, 266,
  4, 267,
  4, 268,
  4, 272,
  4, 273,
  4, 275,
  4, 276,
  4, 278,
  4, 280,
  4, 282,
  4, 284,
  4, 285,
  4, 291,
  4, 292,
  4, 294,
  4, 295,
  4, 296,
  4, 297,
  4, 298,
  4, 300,
  5, 6,
  5, 7,
  5, 9,
  5, 15,
  5, 16,
  5, 17,
  5, 23,
  5, 24,
  5, 25,
  5, 30,
  5, 32,
  5, 34,
  5, 35,
  5, 36,
  5, 37,
  5, 39,
  5, 43,
  5, 44,
  5, 47,
  5, 50,
  5, 55,
  5, 56,
  5, 58,
  5, 64,
  5, 66,
  5, 67,
  5, 69,
  5, 70,
  5, 72,
  5, 75,
  5, 78,
  5, 79,
  5, 80,
  5, 82,
  5, 83,
  5, 89,
  5, 90,
  5, 92,
  5, 94,
  5, 99,
  5, 103,
  5, 104,
  5, 105,
  5, 108,
  5, 110,
  5, 111,
  5, 113,
  5, 114,
  5, 116,
  5, 117,
  5, 118,
  5, 121,
  5, 122,
  5, 124,
  5, 127,
  5, 129,
  5, 131,
  5, 132,
  5, 134,
  5, 135,
  5, 136,
  5, 137,
  5, 139,
  5, 140,
  5, 144,
  5, 145,
  5, 149,
  5, 150,
  5, 152,
  5, 153,
  5, 154,
  5, 155,
  5, 156,
  5, 157,
  5, 159,
  5, 160,
  5, 161,
  5, 164,
  5, 168,
  5, 169,
  5, 170,
  5, 171,
  5, 172,
  5, 173,
  5, 181,
  5, 182,
  5, 183,
  5, 184,
  5, 185,
  5, 186,
  5, 187,
  5, 190,
  5, 191,
  5, 192,
  5, 194,
  5, 196,
  5, 198,
  5, 200,
  5, 201,
  5, 202,
  5, 203,
  5, 204,
  5, 205,
  5, 208,
  5, 210,
  5, 211,
  5, 213,
  5, 214,
  5, 215,
  5, 217,
  5, 218,
  5, 220,
  5, 222,
  5, 223,
  5, 225,
  5, 227,
  5, 232,
  5, 235,
  5, 237,
  5, 239,
  5, 241,
  5, 242,
  5, 243,
  5, 244,
  5, 246,
  5, 249,
  5, 253,
  5, 254,
  5, 257,
  5, 259,
  5, 260,
  5, 261,
  5, 262,
  5, 264,
  5, 266,
  5, 270,
  5, 271,
  5, 272,
  5, 275,
  5, 278,
  5, 280,
  5, 286,
  5, 287,
  5, 289,
  5, 299,
  6, 9,
  6, 13,
  6, 14,
  6, 15,
  6, 16,
  6, 18,
  6, 19,
  6, 20,
  6, 26,
  6, 27,
  6, 29,
  6, 33,
  6, 34,
  6, 36,
  6, 42,
  6, 44,
  6, 45,
  6, 47,
  6, 48,
  6, 49,
  6, 51,
  6, 54,
  6, 55,
  6, 56,
  6, 57,
  6, 58,
  6, 60,
  6, 61,
  6, 62,
  6, 63,
  6, 68,
  6, 70,
  6, 71,
  6, 72,
  6, 81,
  6, 82,
  6, 83,
  6, 84,
  6, 85,
  6, 89,
  6, 91,
  6, 95,
  6, 96,
  6, 97,
  6, 98,
  6, 102,
  6, 104,
  6, 108,
  6, 109,
  6, 110,
  6, 114,
  6, 117,
  6, 119,
  6, 120,
  6, 121,
  6, 122,
  6, 123,
  6, 127,
  6, 128,
  6, 129,
  6, 131,
  6, 132,
  6, 135,
  6, 137,
  6, 138,
  6, 140,
  6, 141,
  6, 142,
  6, 143,
  6, 145,
  6, 146,
  6, 150,
  6, 151,
  6, 152,
  6, 155,
  6, 156,
  6, 158,
  6, 163,
  6, 164,
  6, 165,
  6, 168,
  6, 170,
  6, 172,
  6, 173,
  6, 175,
  6, 176,
  6, 178,
  6, 179,
  6, 180,
  6, 181,
  6, 182,
  6, 185,
  6, 189,
  6, 193,
  6, 194,
  6, 195,
  6, 196,
  6, 197,
  6, 198,
  6, 199,
  6, 201,
  6, 202,
  6, 204,
  6, 205,
  6, 206,
  6, 207,
  6, 209,
  6, 211,
  6, 212,
  6, 213,
  6, 214,
  6, 216,
  6, 217,
  6, 218,
  6, 222,
  6, 227,
  6, 228,
  6, 229,
  6, 231,
  6, 234,
  6, 235,
  6, 238,
  6, 242,
  6, 243,
  6, 244,
  6, 248,
  6, 250,
  6, 252,
  6, 255,
  6, 257,
  6, 259,
  6, 260,
  6, 262,
  6, 263,
  6, 265,
  6, 266,
  6, 267,
  6, 269,
  6, 271,
  6, 272,
  6, 276,
  6, 278,
  6, 279,
  6, 282,
  6, 283,
  6, 289,
  6, 290,
  6, 291,
  6, 292,
  6, 294,
  6, 296,
  6, 298,
  6, 299,
  7, 9,
  7, 11,
  7, 12,
  7, 13,
  7, 15,
  7, 16,
  7, 20,
  7, 22,
  7, 23,
  7, 24,
  7, 25,
  7, 29,
  7, 33,
  7, 34,
  7, 37,
  7, 40,
  7, 43,
  7, 47,
  7, 48,
  7, 49,
  7, 50,
  7, 52,
  7, 53,
  7, 54,
  7, 56,
  7, 57,
  7, 60,
  7, 61,
  7, 63,
  7, 65,
  7, 66,
  7, 69,
  7, 70,
  7, 71,
  7, 74,
  7, 76,
  7, 77,
  7, 78,
  7, 81,
  7, 85,
  7, 87,
  7, 93,
  7, 95,
  7, 96,
  7, 99,
  7, 101,
  7, 102,
  7, 104,
  7, 107,
  7, 108,
  7, 109,
  7, 114,
  7, 115,
  7, 116,
  7, 117,
  7, 118,
  7, 119,
  7, 122,
  7, 123,
  7, 124,
  7, 127,
  7, 128,
  7, 129,
  7, 130,
  7, 132,
  7, 133,
  7, 136,
  7, 138,
  7, 139,
  7, 140,
  7, 141,
  7, 142,
  7, 143,
  7, 151,
  7, 153,
  7, 154,
  7, 156,
  7, 158,
  7, 160,
  7, 161,
  7, 163,
  7, 164,
  7, 165,
  7, 166,
  7, 168,
  7, 169,
  7, 170,
  7, 172,
  7, 173,
  7, 175,
  7, 176,
  7, 178,
  7, 181,
  7, 182,
  7, 184,
  7, 187,
  7, 189,
  7, 190,
  7, 199,
  7, 200,
  7, 202,
  7, 203,
  7, 205,
  7, 207,
  7, 211,
  7, 212,
  7, 213,
  7, 214,
  7, 215,
  7, 216,
  7, 217,
  7, 223,
  7, 224,
  7, 227,
  7, 228,
  7, 230,
  7, 232,
  7, 235,
  7, 236,
  7, 238,
  7, 240,
  7, 242,
  7, 243,
  7, 244,
  7, 245,
  7, 246,
  7, 247,
  7, 248,
  7, 254,
  7, 256,
  7, 257,
  7, 260,
  7, 262,
  7, 265,
  7, 267,
  7, 269,
  7, 270,
  7, 271,
  7, 274,
  7, 277,
  7, 281,
  7, 282,
  7, 283,
  7, 284,
  7, 285,
  7, 286,
  7, 288,
  7, 289,
  7, 292,
  7, 294,
  7, 296,
  7, 297,
  7, 299,
  8, 11,
  8, 12,
  8, 13,
  8, 14,
  8, 16,
  8, 18,
  8, 19,
  8, 21,
  8, 22,
  8, 23,
  8, 26,
  8, 28,
  8, 32,
  8, 33,
  8, 34,
  8, 35,
  8, 36,
  8, 38,
  8, 39,
  8, 42,
  8, 43,
  8, 44,
  8, 48,
  8, 52,
  8, 55,
  8, 57,
  8, 62,
  8, 63,
  8, 66,
  8, 69,
  8, 70,
  8, 72,
  8, 73,
  8, 75,
  8, 76,
  8, 77,
  8, 78,
  8, 80,
  8, 85,
  8, 86,
  8, 88,
  8, 89,
  8, 90,
  8, 92,
  8, 94,
  8, 96,
  8, 98,
  8, 99,
  8, 101,
  8, 102,
  8, 105,
  8, 106,
  8, 107,
  8, 108,
  8, 109,
  8, 111,
  8, 117,
  8, 125,
  8, 127,
  8, 128,
  8, 131,
  8, 135,
  8, 136,
  8, 137,
  8, 139,
  8, 140,
  8, 141,
  8, 143,
  8, 145,
  8, 150,
  8, 152,
  8, 153,
  8, 155,
  8, 157,
  8, 158,
  8, 160,
  8, 161,
  8, 164,
  8, 165,
  8, 166,
  8, 167,
  8, 170,
  8, 171,
  8, 172,
  8, 174,
  8, 175,
  8, 176,
  8, 178,
  8, 181,
  8, 183,
  8, 184,
  8, 185,
  8, 187,
  8, 192,
  8, 193,
  8, 196,
  8, 198,
  8, 199,
  8, 200,
  8, 202,
  8, 207,
  8, 208,
  8, 213,
  8, 217,
  8, 219,
  8, 224,
  8, 226,
  8, 227,
  8, 228,
  8, 231,
  8, 232,
  8, 236,
  8, 242,
  8, 243,
  8, 244,
  8, 245,
  8, 246,
  8, 248,
  8, 249,
  8, 250,
  8, 252,
  8, 253,
  8, 254,
  8, 255,
  8, 256,
  8, 258,
  8, 261,
  8, 262,
  8, 265,
  8, 268,
  8, 273,
  8, 274,
  8, 278,
  8, 280,
  8, 285,
  8, 286,
  8, 287,
  8, 289,
  8, 294,
  8, 295,
  8, 296,
  8, 298,
  8, 299,
  9, 10,
  9, 14,
  9, 15,
  9, 18,
  9, 19,
  9, 23,
  9, 24,
  9, 26,
  9, 30,
  9, 31,
  9, 34,
  9, 35,
  9, 36,
  9, 40,
  9, 42,
  9, 44,
  9, 45,
  9, 46,
  9, 47,
  9, 50,
  9, 51,
  9, 52,
  9, 55,
  9, 58,
  9, 59,
  9, 61,
  9, 64,
  9, 69,
  9, 70,
  9, 71,
  9, 73,
  9, 74,
  9, 75,
  9, 77,
  9, 78,
  9, 84,
  9, 85,
  9, 86,
  9, 88,
  9, 89,
  9, 91,
  9, 92,
  9, 94,
  9, 95,
  9, 96,
  9, 102,
  9, 104,
  9, 105,
  9, 106,
  9, 109,
  9, 111,
  9, 112,
  9, 113,
  9, 118,
  9, 119,
  9, 121,
  9, 122,
  9, 123,
  9, 124,
  9, 126,
  9, 127,
  9, 130,
  9, 133,
  9, 134,
  9, 135,
  9, 136,
  9, 143,
  9, 144,
  9, 145,
  9, 146,
  9, 149,
  9, 150,
  9, 151,
  9, 153,
  9, 156,
  9, 160,
  9, 163,
  9, 164,
  9, 166,
  9, 167,
  9, 168,
  9, 169,
  9, 172,
  9, 173,
  9, 174,
  9, 175,
  9, 176,
  9, 178,
  9, 179,
  9, 183,
  9, 184,
  9, 198,
  9, 199,
  9, 202,
  9, 203,
  9, 208,
  9, 209,
  9, 210,
  9, 211,
  9, 213,
  9, 216,
  9, 221,
  9, 223,
  9, 225,
  9, 227,
  9, 228,
  9, 231,
  9, 232,
  9, 235,
  9, 236,
  9, 240,
  9, 242,
  9, 243,
  9, 244,
  9, 245,
  9, 249,
  9, 256,
  9, 261,
  9, 262,
  9, 263,
  9, 264,
  9, 265,
  9, 267,
  9, 268,
  9, 269,
  9, 272,
  9, 273,
  9, 274,
  9, 275,
  9, 277,
  9, 279,
  9, 281,
  9, 289,
  9, 291,
  10, 11,
  10, 12,
  10, 15,
  10, 18,
  10, 20,
  10, 21,
  10, 22,
  10, 23,
  10, 25,
  10, 26,
  10, 27,
  10, 29,
  10, 30,
  10, 31,
  10, 32,
  10, 34,
  10, 35,
  10, 36,
  10, 37,
  10, 39,
  10, 46,
  10, 52,
  10, 53,
  10, 56,
  10, 59,
  10, 60,
  10, 62,
  10, 63,
  10, 64,
  10, 65,
  10, 66,
  10, 68,
  10, 69,
  10, 70,
  10, 74,
  10, 78,
  10, 79,
  10, 85,
  10, 86,
  10, 89,
  10, 90,
  10, 91,
  10, 92,
  10, 93,
  10, 94,
  10, 95,
  10, 99,
  10, 107,
  10, 108,
  10, 109,
  10, 113,
  10, 115,
  10, 116,
  10, 117,
  10, 119,
  10, 120,
  10, 122,
  10, 124,
  10, 127,
  10, 128,
  10, 130,
  10, 131,
  10, 132,
  10, 135,
  10, 138,
  10, 140,
  10, 145,
  10, 147,
  10, 149,
  10, 151,
  10, 155,
  10, 156,
  10, 157,
  10, 158,
  10, 159,
  10, 160,
  10, 161,
  10, 163,
  10, 164,
  10, 165,
  10, 166,
  10, 168,
  10, 169,
  10, 172,
  10, 178,
  10, 180,
  10, 181,
  10, 183,
  10, 188,
  10, 190,
  10, 191,
  10, 192,
  10, 193,
  10, 194,
  10, 196,
  10, 198,
  10, 199,
  10, 200,
  10, 203,
  10, 208,
  10, 209,
  10, 210,
  10, 211,
  10, 212,
  10, 215,
  10, 216,
  10, 218,
  10, 220,
  10, 221,
  10, 223,
  10, 225,
  10, 227,
  10, 229,
  10, 232,
  10, 234,
  10, 238,
  10, 239,
  10, 242,
  10, 246,
  10, 248,
  10, 251,
  10, 255,
  10, 259,
  10, 262,
  10, 265,
  10, 266,
  10, 267,
  10, 268,
  10, 271,
  10, 272,
  10, 274,
  10, 275,
  10, 278,
  10, 279,
  10, 280,
  10, 281,
  10, 283,
  10, 284,
  10, 293,
  10, 297,
  10, 299,
  11, 13,
  11, 14,
  11, 16,
  11, 18,
  11, 23,
  11, 25,
  11, 26,
  11, 27,
  11, 28,
  11, 30,
  11, 31,
  11, 33,
  11, 36,
  11, 38,
  11, 39,
  11, 40,
  11, 41,
  11, 43,
  11, 44,
  11, 45,
  11, 46,
  11, 48,
  11, 49,
  11, 52,
  11, 55,
  11, 56,
  11, 57,
  11, 58,
  11, 60,
  11, 61,
  11, 65,
  11, 66,
  11, 67,
  11, 68,
  11, 70,
  11, 71,
  11, 72,
  11, 73,
  11, 76,
  11, 77,
  11, 78,
  11, 82,
  11, 83,
  11, 84,
  11, 88,
  11, 92,
  11, 93,
  11, 94,
  11, 96,
  11, 97,
  11, 98,
  11, 99,
  11, 100,
  11, 101,
  11, 103,
  11, 108,
  11, 110,
  11, 111,
  11, 114,
  11, 115,
  11, 116,
  11, 117,
  11, 119,
  11, 120,
  11, 132,
  11, 133,
  11, 136,
  11, 137,
  11, 138,
  11, 147,
  11, 151,
  11, 152,
  11, 156,
  11, 161,
  11, 166,
  11, 167,
  11, 168,
  11, 169,
  11, 170,
  11, 172,
  11, 173,
  11, 174,
  11, 175,
  11, 176,
  11, 177,
  11, 179,
  11, 182,
  11, 183,
  11, 186,
  11, 187,
  11, 188,
  11, 190,
  11, 191,
  11, 193,
  11, 195,
  11, 196,
  11, 197,
  11, 200,
  11, 202,
  11, 203,
  11, 205,
  11, 206,
  11, 208,
  11, 210,
  11, 211,
  11, 215,
  11, 217,
  11, 219,
  11, 223,
  11, 224,
  11, 230,
  11, 231,
  11, 232,
  11, 233,
  11, 234,
  11, 237,
  11, 238,
  11, 239,
  11, 240,
  11, 241,
  11, 244,
  11, 247,
  11, 251,
  11, 253,
  11, 254,
  11, 256,
  11, 258,
  11, 259,
  11, 260,
  11, 261,
  11, 263,
  11, 266,
  11, 267,
  11, 268,
  11, 269,
  11, 272,
  11, 273,
  11, 276,
  11, 278,
  11, 283,
  11, 286,
  11, 287,
  11, 289,
  11, 290,
  11, 293,
  11, 295,
  11, 296,
  11, 297,
  11, 298,
  11, 300,
  12, 13,
  12, 19,
  12, 20,
  12, 22,
  12, 24,
  12, 27,
  12, 31,
  12, 33,
  12, 37,
  12, 39,
  12, 40,
  12, 41,
  12, 42,
  12, 46,
  12, 47,
  12, 49,
  12, 50,
  12, 55,
  12, 58,
  12, 60,
  12, 61,
  12, 62,
  12, 66,
  12, 67,
  12, 68,
  12, 69,
  12, 70,
  12, 77,
  12, 78,
  12, 81,
  12, 82,
  12, 85,
  12, 87,
  12, 88,
  12, 93,
  12, 94,
  12, 96,
  12, 102,
  12, 104,
  12, 105,
  12, 107,
  12, 111,
  12, 112,
  12, 113,
  12, 116,
  12, 117,
  12, 118,
  12, 119,
  12, 120,
  12, 121,
  12, 123,
  12, 125,
  12, 126,
  12, 128,
  12, 129,
  12, 130,
  12, 132,
  12, 133,
  12, 134,
  12, 135,
  12, 137,
  12, 138,
  12, 142,
  12, 146,
  12, 148,
  12, 150,
  12, 151,
  12, 152,
  12, 153,
  12, 154,
  12, 157,
  12, 158,
  12, 159,
  12, 163,
  12, 164,
  12, 171,
  12, 174,
  12, 175,
  12, 179,
  12, 180,
  12, 183,
  12, 184,
  12, 185,
  12, 187,
  12, 191,
  12, 192,
  12, 193,
  12, 195,
  12, 196,
  12, 197,
  12, 199,
  12, 202,
  12, 206,
  12, 207,
  12, 209,
  12, 210,
  12, 213,
  12, 214,
  12, 216,
  12, 218,
  12, 220,
  12, 222,
  12, 224,
  12, 226,
  12, 229,
  12, 230,
  12, 234,
  12, 236,
  12, 237,
  12, 238,
  12, 239,
  12, 241,
  12, 242,
  12, 243,
  12, 245,
  12, 246,
  12, 247,
  12, 249,
  12, 251,
  12, 252,
  12, 254,
  12, 258,
  12, 259,
  12, 260,
  12, 265,
  12, 268,
  12, 271,
  12, 274,
  12, 277,
  12, 278,
  12, 282,
  12, 286,
  12, 288,
  12, 289,
  12, 290,
  12, 292,
  12, 293,
  12, 296,
  12, 298,
  12, 299,
  13, 14,
  13, 18,
  13, 19,
  13, 20,
  13, 22,
  13, 24,
  13, 26,
  13, 30,
  13, 31,
  13, 32,
  13, 33,
  13, 34,
  13, 37,
  13, 38,
  13, 40,
  13, 41,
  13, 42,
  13, 44,
  13, 45,
  13, 46,
  13, 49,
  13, 50,
  13, 51,
  13, 55,
  13, 56,
  13, 57,
  13, 58,
  13, 63,
  13, 68,
  13, 69,
  13, 73,
  13, 74,
  13, 75,
  13, 79,
  13, 80,
  13, 81,
  13, 82,
  13, 83,
  13, 86,
  13, 87,
  13, 88,
  13, 89,
  13, 91,
  13, 93,
  13, 94,
  13, 95,
  13, 97,
  13, 102,
  13, 104,
  13, 105,
  13, 106,
  13, 108,
  13, 109,
  13, 111,
  13, 113,
  13, 117,
  13, 119,
  13, 120,
  13, 121,
  13, 123,
  13, 124,
  13, 126,
  13, 127,
  13, 129,
  13, 130,
  13, 133,
  13, 135,
  13, 136,
  13, 138,
  13, 139,
  13, 140,
  13, 141,
  13, 142,
  13, 144,
  13, 145,
  13, 147,
  13, 148,
  13, 150,
  13, 153,
  13, 154,
  13, 155,
  13, 160,
  13, 161,
  13, 163,
  13, 164,
  13, 167,
  13, 169,
  13, 171,
  13, 173,
  13, 177,
  13, 178,
  13, 179,
  13, 181,
  13, 183,
  13, 186,
  13, 192,
  13, 193,
  13, 195,
  13, 197,
  13, 198,
  13, 199,
  13, 201,
  13, 202,
  13, 204,
  13, 206,
  13, 209,
  13, 213,
  13, 215,
  13, 217,
  13, 218,
  13, 219,
  13, 220,
  13, 223,
  13, 225,
  13, 226,
  13, 229,
  13, 235,
  13, 236,
  13, 237,
  13, 239,
  13, 240,
  13, 243,
  13, 244,
  13, 248,
  13, 249,
  13, 250,
  13, 252,
  13, 255,
  13, 257,
  13, 259,
  13, 260,
  13, 262,
  13, 263,
  13, 264,
  13, 266,
  13, 267,
  13, 268,
  13, 275,
  13, 276,
  13, 278,
  13, 283,
  13, 287,
  13, 288,
  13, 289,
  13, 290,
  13, 291,
  13, 293,
  13, 296,
  13, 297,
  14, 18,
  14, 19,
  14, 22,
  14, 26,
  14, 27,
  14, 30,
  14, 31,
  14, 34,
  14, 37,
  14, 38,
  14, 42,
  14, 44,
  14, 48,
  14, 49,
  14, 50,
  14, 51,
  14, 52,
  14, 53,
  14, 54,
  14, 55,
  14, 56,
  14, 57,
  14, 59,
  14, 66,
  14, 68,
  14, 69,
  14, 70,
  14, 76,
  14, 77,
  14, 78,
  14, 80,
  14, 82,
  14, 85,
  14, 86,
  14, 87,
  14, 90,
  14, 91,
  14, 95,
  14, 97,
  14, 98,
  14, 99,
  14, 101,
  14, 111,
  14, 114,
  14, 115,
  14, 116,
  14, 117,
  14, 118,
  14, 119,
  14, 120,
  14, 122,
  14, 124,
  14, 127,
  14, 128,
  14, 131,
  14, 134,
  14, 136,
  14, 137,
  14, 139,
  14, 140,
  14, 141,
  14, 146,
  14, 148,
  14, 152,
  14, 156,
  14, 158,
  14, 160,
  14, 163,
  14, 165,
  14, 167,
  14, 171,
  14, 172,
  14, 176,
  14, 178,
  14, 179,
  14, 182,
  14, 183,
  14, 184,
  14, 185,
  14, 187,
  14, 188,
  14, 191,
  14, 192,
  14, 193,
  14, 194,
  14, 197,
  14, 199,
  14, 200,
  14, 202,
  14, 205,
  14, 207,
  14, 211,
  14, 212,
  14, 215,
  14, 218,
  14, 219,
  14, 223,
  14, 224,
  14, 225,
  14, 226,
  14, 229,
  14, 231,
  14, 232,
  14, 235,
  14, 239,
  14, 240,
  14, 241,
  14, 244,
  14, 247,
  14, 248,
  14, 251,
  14, 254,
  14, 260,
  14, 263,
  14, 268,
  14, 270,
  14, 271,
  14, 277,
  14, 278,
  14, 283,
  14, 284,
  14, 285,
  14, 288,
  14, 289,
  14, 290,
  14, 291,
  14, 296,
  14, 297,
  14, 298,
  14, 299,
  14, 300,
  15, 16,
  15, 17,
  15, 18,
  15, 20,
  15, 21,
  15, 24,
  15, 25,
  15, 26,
  15, 28,
  15, 31,
  15, 32,
  15, 33,
  15, 34,
  15, 36,
  15, 39,
  15, 42,
  15, 44,
  15, 45,
  15, 52,
  15, 55,
  15, 57,
  15, 59,
  15, 60,
  15, 61,
  15, 62,
  15, 63,
  15, 64,
  15, 65,
  15, 68,
  15, 69,
  15, 72,
  15, 74,
  15, 80,
  15, 81,
  15, 83,
  15, 84,
  15, 89,
  15, 92,
  15, 94,
  15, 95,
  15, 97,
  15, 99,
  15, 104,
  15, 107,
  15, 108,
  15, 110,
  15, 111,
  15, 112,
  15, 114,
  15, 121,
  15, 122,
  15, 123,
  15, 127,
  15, 128,
  15, 129,
  15, 132,
  15, 134,
  15, 141,
  15, 142,
  15, 143,
  15, 146,
  15, 148,
  15, 151,
  15, 152,
  15, 154,
  15, 155,
  15, 156,
  15, 158,
  15, 159,
  15, 161,
  15, 164,
  15, 167,
  15, 172,
  15, 173,
  15, 176,
  15, 178,
  15, 181,
  15, 183,
  15, 188,
  15, 192,
  15, 194,
  15, 195,
  15, 198,
  15, 199,
  15, 200,
  15, 201,
  15, 206,
  15, 207,
  15, 209,
  15, 210,
  15, 211,
  15, 212,
  15, 215,
  15, 216,
  15, 219,
  15, 222,
  15, 223,
  15, 224,
  15, 229,
  15, 230,
  15, 231,
  15, 232,
  15, 237,
  15, 239,
  15, 240,
  15, 241,
  15, 243,
  15, 244,
  15, 249,
  15, 250,
  15, 251,
  15, 253,
  15, 257,
  15, 258,
  15, 259,
  15, 262,
  15, 263,
  15, 264,
  15, 265,
  15, 266,
  15, 267,
  15, 271,
  15, 273,
  15, 274,
  15, 275,
  15, 277,
  15, 279,
  15, 280,
  15, 281,
  15, 282,
  15, 283,
  15, 290,
  15, 293,
  15, 294,
  15, 295,
  15, 296,
  15, 298,
  15, 299,
  15, 300,
  16, 18,
  16, 20,
  16, 23,
  16, 25,
  16, 26,
  16, 27,
  16, 31,
  16, 33,
  16, 40,
  16, 42,
  16, 45,
  16, 46,
  16, 48,
  16, 49,
  16, 51,
  16, 53,
  16, 58,
  16, 59,
  16, 61,
  16, 62,
  16, 63,
  16, 64,
  16, 67,
  16, 68,
  16, 71,
  16, 72,
  16, 73,
  16, 74,
  16, 76,
  16, 77,
  16, 79,
  16, 80,
  16, 81,
  16, 82,
  16, 84,
  16, 85,
  16, 87,
  16, 90,
  16, 92,
  16, 95,
  16, 96,
  16, 97,
  16, 98,
  16, 100,
  16, 101,
  16, 102,
  16, 104,
  16, 106,
  16, 109,
  16, 110,
  16, 114,
  16, 116,
  16, 119,
  16, 122,
  16, 125,
  16, 126,
  16, 128,
  16, 132,
  16, 133,
  16, 134,
  16, 136,
  16, 139,
  16, 145,
  16, 146,
  16, 147,
  16, 149,
  16, 150,
  16, 151,
  16, 153,
  16, 154,
  16, 155,
  16, 157,
  16, 161,
  16, 162,
  16, 163,
  16, 164,
  16, 166,
  16, 172,
  16, 177,
  16, 178,
  16, 179,
  16, 181,
  16, 182,
  16, 185,
  16, 186,
  16, 188,
  16, 195,
  16, 196,
  16, 199,
  16, 200,
  16, 202,
  16, 204,
  16, 206,
  16, 207,
  16, 208,
  16, 210,
  16, 212,
  16, 213,
  16, 216,
  16, 218,
  16, 220,
  16, 221,
  16, 223,
  16, 224,
  16, 229,
  16, 230,
  16, 231,
  16, 232,
  16, 233,
  16, 235,
  16, 236,
  16, 238,
  16, 240,
  16, 241,
  16, 242,
  16, 245,
  16, 246,
  16, 247,
  16, 250,
  16, 251,
  16, 252,
  16, 253,
  16, 254,
  16, 255,
  16, 256,
  16, 258,
  16, 261,
  16, 263,
  16, 264,
  16, 265,
  16, 266,
  16, 268,
  16, 269,
  16, 270,
  16, 271,
  16, 272,
  16, 273,
  16, 275,
  16, 276,
  16, 281,
  16, 284,
  16, 285,
  16, 286,
  16, 292,
  16, 295,
  16, 296,
  16, 300,
  17, 18,
  17, 19,
  17, 21,
  17, 23,
  17, 26,
  17, 29,
  17, 30,
  17, 31,
  17, 33,
  17, 35,
  17, 36,
  17, 37,
  17, 38,
  17, 41,
  17, 45,
  17, 50,
  17, 51,
  17, 52,
  17, 53,
  17, 54,
  17, 55,
  17, 56,
  17, 58,
  17, 59,
  17, 61,
  17, 63,
  17, 64,
  17, 66,
  17, 69,
  17, 70,
  17, 71,
  17, 73,
  17, 74,
  17, 76,
  17, 77,
  17, 79,
  17, 80,
  17, 81,
  17, 83,
  17, 84,
  17, 86,
  17, 87,
  17, 90,
  17, 93,
  17, 96,
  17, 97,
  17, 100,
  17, 102,
  17, 104,
  17, 105,
  17, 107,
  17, 108,
  17, 110,
  17, 113,
  17, 114,
  17, 115,
  17, 116,
  17, 120,
  17, 122,
  17, 123,
  17, 124,
  17, 127,
  17, 129,
  17, 133,
  17, 134,
  17, 135,
  17, 136,
  17, 137,
  17, 138,
  17, 139,
  17, 140,
  17, 143,
  17, 145,
  17, 147,
  17, 148,
  17, 150,
  17, 152,
  17, 153,
  17, 156,
  17, 157,
  17, 158,
  17, 161,
  17, 163,
  17, 164,
  17, 165,
  17, 167,
  17, 170,
  17, 171,
  17, 174,
  17, 175,
  17, 176,
  17, 177,
  17, 178,
  17, 179,
  17, 180,
  17, 185,
  17, 187,
  17, 189,
  17, 191,
  17, 192,
  17, 194,
  17, 196,
  17, 199,
  17, 200,
  17, 201,
  17, 202,
  17, 204,
  17, 205,
  17, 208,
  17, 209,
  17, 212,
  17, 215,
  17, 216,
  17, 222,
  17, 226,
  17, 227,
  17, 229,
  17, 231,
  17, 233,
  17, 234,
  17, 236,
  17, 238,
  17, 240,
  17, 241,
  17, 243,
  17, 244,
  17, 245,
  17, 246,
  17, 247,
  17, 249,
  17, 251,
  17, 252,
  17, 254,
  17, 256,
  17, 259,
  17, 260,
  17, 261,
  17, 262,
  17, 264,
  17, 265,
  17, 266,
  17, 268,
  17, 270,
  17, 271,
  17, 274,
  17, 278,
  17, 279,
  17, 280,
  17, 283,
  17, 285,
  17, 286,
  17, 288,
  17, 289,
  17, 290,
  17, 291,
  17, 292,
  17, 296,
  17, 297,
  17, 298,
  17, 300,
  18, 19,
  18, 20,
  18, 21,
  18, 23,
  18, 27,
  18, 30,
  18, 33,
  18, 35,
  18, 36,
  18, 41,
  18, 43,
  18, 45,
  18, 48,
  18, 51,
  18, 52,
  18, 54,
  18, 56,
  18, 57,
  18, 62,
  18, 63,
  18, 65,
  18, 67,
  18, 72,
  18, 74,
  18, 76,
  18, 77,
  18, 80,
  18, 81,
  18, 82,
  18, 84,
  18, 85,
  18, 86,
  18, 90,
  18, 95,
  18, 96,
  18, 103,
  18, 105,
  18, 109,
  18, 110,
  18, 113,
  18, 118,
  18, 125,
  18, 126,
  18, 127,
  18, 128,
  18, 135,
  18, 136,
  18, 138,
  18, 139,
  18, 140,
  18, 141,
  18, 142,
  18, 144,
  18, 145,
  18, 146,
  18, 150,
  18, 151,
  18, 152,
  18, 156,
  18, 160,
  18, 162,
  18, 163,
  18, 164,
  18, 165,
  18, 166,
  18, 168,
  18, 171,
  18, 174,
  18, 176,
  18, 177,
  18, 179,
  18, 180,
  18, 182,
  18, 193,
  18, 195,
  18, 197,
  18, 198,
  18, 201,
  18, 203,
  18, 205,
  18, 210,
  18, 211,
  18, 212,
  18, 213,
  18, 214,
  18, 218,
  18, 220,
  18, 222,
  18, 225,
  18, 228,
  18, 230,
  18, 232,
  18, 235,
  18, 236,
  18, 240,
  18, 243,
  18, 245,
  18, 247,
  18, 255,
  18, 258,
  18, 259,
  18, 262,
  18, 264,
  18, 265,
  18, 266,
  18, 267,
  18, 268,
  18, 269,
  18, 273,
  18, 274,
  18, 275,
  18, 276,
  18, 277,
  18, 280,
  18, 283,
  18, 286,
  18, 287,
  18, 289,
  18, 291,
  18, 292,
  18, 293,
  18, 297,
  18, 300,
  19, 21,
  19, 23,
  19, 25,
  19, 27,
  19, 28,
  19, 31,
  19, 32,
  19, 33,
  19, 39,
  19, 40,
  19, 41,
  19, 43,
  19, 44,
  19, 47,
  19, 48,
  19, 49,
  19, 50,
  19, 52,
  19, 56,
  19, 60,
  19, 62,
  19, 63,
  19, 68,
  19, 69,
  19, 70,
  19, 71,
  19, 73,
  19, 75,
  19, 76,
  19, 78,
  19, 79,
  19, 82,
  19, 83,
  19, 92,
  19, 93,
  19, 94,
  19, 99,
  19, 100,
  19, 104,
  19, 105,
  19, 107,
  19, 109,
  19, 110,
  19, 113,
  19, 114,
  19, 119,
  19, 120,
  19, 125,
  19, 126,
  19, 127,
  19, 129,
  19, 131,
  19, 132,
  19, 133,
  19, 134,
  19, 135,
  19, 136,
  19, 137,
  19, 138,
  19, 141,
  19, 144,
  19, 146,
  19, 148,
  19, 151,
  19, 152,
  19, 155,
  19, 156,
  19, 157,
  19, 158,
  19, 160,
  19, 162,
  19, 163,
  19, 165,
  19, 175,
  19, 176,
  19, 178,
  19, 179,
  19, 184,
  19, 187,
  19, 188,
  19, 189,
  19, 193,
  19, 194,
  19, 199,
  19, 201,
  19, 203,
  19, 204,
  19, 206,
  19, 209,
  19, 210,
  19, 212,
  19, 213,
  19, 215,
  19, 216,
  19, 218,
  19, 220,
  19, 221,
  19, 222,
  19, 224,
  19, 227,
  19, 229,
  19, 230,
  19, 232,
  19, 233,
  19, 235,
  19, 237,
  19, 238,
  19, 239,
  19, 240,
  19, 242,
  19, 244,
  19, 245,
  19, 249,
  19, 250,
  19, 252,
  19, 257,
  19, 258,
  19, 261,
  19, 262,
  19, 263,
  19, 264,
  19, 265,
  19, 267,
  19, 273,
  19, 275,
  19, 276,
  19, 277,
  19, 279,
  19, 280,
  19, 282,
  19, 283,
  19, 287,
  19, 288,
  19, 289,
  19, 295,
  19, 297,
  19, 298,
  19, 299,
  20, 21,
  20, 22,
  20, 24,
  20, 27,
  20, 29,
  20, 30,
  20, 31,
  20, 33,
  20, 35,
  20, 39,
  20, 40,
  20, 42,
  20, 43,
  20, 44,
  20, 45,
  20, 46,
  20, 48,
  20, 51,
  20, 52,
  20, 54,
  20, 56,
  20, 58,
  20, 61,
  20, 64,
  20, 66,
  20, 67,
  20, 72,
  20, 73,
  20, 75,
  20, 76,
  20, 80,
  20, 82,
  20, 85,
  20, 86,
  20, 87,
  20, 88,
  20, 89,
  20, 90,
  20, 91,
  20, 92,
  20, 93,
  20, 96,
  20, 98,
  20, 100,
  20, 102,
  20, 106,
  20, 109,
  20, 111,
  20, 113,
  20, 114,
  20, 116,
  20, 117,
  20, 120,
  20, 121,
  20, 123,
  20, 124,
  20, 126,
  20, 127,
  20, 128,
  20, 129,
  20, 130,
  20, 131,
  20, 134,
  20, 138,
  20, 140,
  20, 141,
  20, 143,
  20, 144,
  20, 146,
  20, 149,
  20, 153,
  20, 156,
  20, 157,
  20, 158,
  20, 159,
  20, 162,
  20, 163,
  20, 167,
  20, 168,
  20, 170,
  20, 171,
  20, 172,
  20, 173,
  20, 175,
  20, 177,
  20, 179,
  20, 180,
  20, 181,
  20, 182,
  20, 186,
  20, 188,
  20, 194,
  20, 196,
  20, 198,
  20, 200,
  20, 202,
  20, 204,
  20, 205,
  20, 207,
  20, 209,
  20, 210,
  20, 212,
  20, 213,
  20, 214,
  20, 215,
  20, 216,
  20, 219,
  20, 221,
  20, 222,
  20, 223,
  20, 224,
  20, 226,
  20, 227,
  20, 228,
  20, 229,
  20, 231,
  20, 233,
  20, 235,
  20, 236,
  20, 238,
  20, 239,
  20, 240,
  20, 241,
  20, 242,
  20, 243,
  20, 244,
  20, 248,
  20, 249,
  20, 250,
  20, 251,
  20, 253,
  20, 255,
  20, 256,
  20, 257,
  20, 259,
  20, 260,
  20, 261,
  20, 264,
  20, 265,
  20, 268,
  20, 269,
  20, 273,
  20, 276,
  20, 279,
  20, 280,
  20, 281,
  20, 283,
  20, 284,
  20, 286,
  20, 287,
  20, 288,
  20, 291,
  20, 294,
  20, 295,
  20, 299,
  21, 22,
  21, 23,
  21, 24,
  21, 27,
  21, 28,
  21, 29,
  21, 30,
  21, 31,
  21, 32,
  21, 33,
  21, 34,
  21, 37,
  21, 38,
  21, 40,
  21, 42,
  21, 44,
  21, 46,
  21, 47,
  21, 49,
  21, 54,
  21, 55,
  21, 56,
  21, 57,
  21, 60,
  21, 63,
  21, 65,
  21, 66,
  21, 67,
  21, 71,
  21, 76,
  21, 78,
  21, 79,
  21, 80,
  21, 81,
  21, 82,
  21, 87,
  21, 88,
  21, 90,
  21, 92,
  21, 98,
  21, 101,
  21, 102,
  21, 106,
  21, 107,
  21, 110,
  21, 113,
  21, 115,
  21, 118,
  21, 120,
  21, 121,
  21, 122,
  21, 126,
  21, 129,
  21, 130,
  21, 131,
  21, 134,
  21, 135,
  21, 137,
  21, 138,
  21, 142,
  21, 144,
  21, 146,
  21, 147,
  21, 149,
  21, 150,
  21, 151,
  21, 153,
  21, 154,
  21, 156,
  21, 157,
  21, 158,
  21, 159,
  21, 164,
  21, 165,
  21, 166,
  21, 168,
  21, 169,
  21, 170,
  21, 171,
  21, 175,
  21, 177,
  21, 178,
  21, 180,
  21, 182,
  21, 183,
  21, 184,
  21, 185,
  21, 186,
  21, 190,
  21, 191,
  21, 192,
  21, 193,
  21, 195,
  21, 196,
  21, 197,
  21, 198,
  21, 199,
  21, 200,
  21, 202,
  21, 211,
  21, 213,
  21, 214,
  21, 215,
  21, 216,
  21, 217,
  21, 218,
  21, 219,
  21, 220,
  21, 221,
  21, 223,
  21, 232,
  21, 233,
  21, 235,
  21, 236,
  21, 237,
  21, 238,
  21, 240,
  21, 243,
  21, 246,
  21, 247,
  21, 248,
  21, 250,
  21, 251,
  21, 252,
  21, 254,
  21, 255,
  21, 257,
  21, 258,
  21, 259,
  21, 261,
  21, 262,
  21, 264,
  21, 266,
  21, 267,
  21, 269,
  21, 272,
  21, 276,
  21, 278,
  21, 280,
  21, 282,
  21, 284,
  21, 287,
  21, 289,
  21, 291,
  21, 295,
  21, 296,
  21, 298,
  21, 299,
  22, 24,
  22, 25,
  22, 31,
  22, 32,
  22, 33,
  22, 34,
  22, 35,
  22, 39,
  22, 41,
  22, 43,
  22, 44,
  22, 45,
  22, 46,
  22, 47,
  22, 48,
  22, 52,
  22, 56,
  22, 57,
  22, 58,
  22, 61,
  22, 62,
  22, 63,
  22, 66,
  22, 70,
  22, 71,
  22, 73,
  22, 74,
  22, 77,
  22, 79,
  22, 80,
  22, 85,
  22, 87,
  22, 89,
  22, 90,
  22, 91,
  22, 92,
  22, 94,
  22, 98,
  22, 99,
  22, 101,
  22, 102,
  22, 103,
  22, 104,
  22, 105,
  22, 110,
  22, 112,
  22, 113,
  22, 114,
  22, 115,
  22, 116,
  22, 118,
  22, 120,
  22, 121,
  22, 122,
  22, 123,
  22, 124,
  22, 126,
  22, 128,
  22, 132,
  22, 134,
  22, 136,
  22, 137,
  22, 141,
  22, 146,
  22, 149,
  22, 151,
  22, 153,
  22, 154,
  22, 155,
  22, 158,
  22, 159,
  22, 160,
  22, 161,
  22, 167,
  22, 172,
  22, 176,
  22, 177,
  22, 178,
  22, 180,
  22, 181,
  22, 183,
  22, 186,
  22, 187,
  22, 188,
  22, 192,
  22, 194,
  22, 195,
  22, 196,
  22, 200,
  22, 202,
  22, 203,
  22, 204,
  22, 205,
  22, 207,
  22, 211,
  22, 213,
  22, 215,
  22, 217,
  22, 220,
  22, 221,
  22, 223,
  22, 225,
  22, 226,
  22, 227,
  22, 228,
  22, 229,
  22, 230,
  22, 231,
  22, 233,
  22, 234,
  22, 235,
  22, 236,
  22, 239,
  22, 240,
  22, 245,
  22, 254,
  22, 257,
  22, 258,
  22, 259,
  22, 260,
  22, 263,
  22, 266,
  22, 267,
  22, 269,
  22, 271,
  22, 274,
  22, 275,
  22, 276,
  22, 279,
  22, 280,
  22, 282,
  22, 284,
  22, 288,
  22, 289,
  22, 290,
  22, 291,
  22, 292,
  22, 293,
  22, 294,
  22, 295,
  22, 297,
  22, 298,
  22, 300,
  23, 24,
  23, 25,
  23, 26,
  23, 27,
  23, 28,
  23, 29,
  23, 33,
  23, 35,
  23, 36,
  23, 40,
  23, 43,
  23, 44,
  23, 46,
  23, 47,
  23, 48,
  23, 50,
  23, 51,
  23, 52,
  23, 53,
  23, 55,
  23, 57,
  23, 58,
  23, 61,
  23, 62,
  23, 65,
  23, 66,
  23, 68,
  23, 70,
  23, 73,
  23, 75,
  23, 77,
  23, 82,
  23, 85,
  23, 91,
  23, 92,
  23, 93,
  23, 98,
  23, 100,
  23, 102,
  23, 106,
  23, 107,
  23, 110,
  23, 112,
  23, 113,
  23, 114,
  23, 115,
  23, 116,
  23, 120,
  23, 121,
  23, 122,
  23, 123,
  23, 124,
  23, 126,
  23, 129,
  23, 130,
  23, 131,
  23, 134,
  23, 139,
  23, 140,
  23, 141,
  23, 143,
  23, 144,
  23, 147,
  23, 149,
  23, 151,
  23, 152,
  23, 155,
  23, 160,
  23, 161,
  23, 162,
  23, 165,
  23, 166,
  23, 169,
  23, 175,
  23, 176,
  23, 178,
  23, 179,
  23, 181,
  23, 183,
  23, 184,
  23, 188,
  23, 193,
  23, 202,
  23, 203,
  23, 205,
  23, 208,
  23, 210,
  23, 211,
  23, 214,
  23, 216,
  23, 218,
  23, 220,
  23, 221,
  23, 226,
  23, 228,
  23, 229,
  23, 231,
  23, 234,
  23, 237,
  23, 239,
  23, 242,
  23, 251,
  23, 252,
  23, 255,
  23, 256,
  23, 257,
  23, 260,
  23, 261,
  23, 262,
  23, 267,
  23, 269,
  23, 271,
  23, 274,
  23, 275,
  23, 276,
  23, 278,
  23, 280,
  23, 281,
  23, 283,
  23, 284,
  23, 285,
  23, 286,
  23, 287,
  23, 288,
  23, 289,
  23, 290,
  23, 291,
  23, 296,
  24, 29,
  24, 30,
  24, 31,
  24, 32,
  24, 36,
  24, 38,
  24, 39,
  24, 41,
  24, 44,
  24, 46,
  24, 47,
  24, 48,
  24, 49,
  24, 53,
  24, 54,
  24, 55,
  24, 56,
  24, 57,
  24, 65,
  24, 66,
  24, 68,
  24, 69,
  24, 70,
  24, 74,
  24, 77,
  24, 78,
  24, 79,
  24, 81,
  24, 82,
  24, 83,
  24, 84,
  24, 87,
  24, 91,
  24, 92,
  24, 93,
  24, 96,
  24, 97,
  24, 98,
  24, 99,
  24, 100,
  24, 102,
  24, 105,
  24, 107,
  24, 112,
  24, 113,
  24, 115,
  24, 117,
  24, 118,
  24, 121,
  24, 122,
  24, 126,
  24, 128,
  24, 130,
  24, 131,
  24, 133,
  24, 137,
  24, 138,
  24, 140,
  24, 145,
  24, 147,
  24, 148,
  24, 150,
  24, 151,
  24, 152,
  24, 154,
  24, 155,
  24, 156,
  24, 157,
  24, 158,
  24, 161,
  24, 162,
  24, 165,
  24, 166,
  24, 167,
  24, 168,
  24, 170,
  24, 173,
  24, 175,
  24, 176,
  24, 178,
  24, 180,
  24, 181,
  24, 183,
  24, 185,
  24, 189,
  24, 190,
  24, 191,
  24, 192,
  24, 193,
  24, 195,
  24, 196,
  24, 198,
  24, 200,
  24, 201,
  24, 202,
  24, 206,
  24, 208,
  24, 209,
  24, 211,
  24, 213,
  24, 214,
  24, 215,
  24, 216,
  24, 217,
  24, 219,
  24, 223,
  24, 226,
  24, 227,
  24, 229,
  24, 230,
  24, 231,
  24, 233,
  24, 234,
  24, 235,
  24, 236,
  24, 237,
  24, 238,
  24, 239,
  24, 240,
  24, 241,
  24, 248,
  24, 249,
  24, 253,
  24, 254,
  24, 255,
  24, 257,
  24, 258,
  24, 259,
  24, 260,
  24, 261,
  24, 263,
  24, 264,
  24, 265,
  24, 267,
  24, 269,
  24, 270,
  24, 271,
  24, 274,
  24, 275,
  24, 276,
  24, 277,
  24, 279,
  24, 281,
  24, 283,
  24, 284,
  24, 285,
  24, 286,
  24, 289,
  24, 291,
  24, 299,
  24, 300,
  25, 28,
  25, 29,
  25, 30,
  25, 32,
  25, 35,
  25, 36,
  25, 37,
  25, 38,
  25, 39,
  25, 41,
  25, 42,
  25, 43,
  25, 47,
  25, 48,
  25, 52,
  25, 55,
  25, 57,
  25, 58,
  25, 63,
  25, 64,
  25, 65,
  25, 66,
  25, 68,
  25, 75,
  25, 76,
  25, 77,
  25, 81,
  25, 82,
  25, 87,
  25, 88,
  25, 89,
  25, 90,
  25, 91,
  25, 92,
  25, 94,
  25, 97,
  25, 99,
  25, 104,
  25, 105,
  25, 106,
  25, 107,
  25, 110,
  25, 111,
  25, 113,
  25, 114,
  25, 116,
  25, 118,
  25, 119,
  25, 120,
  25, 121,
  25, 124,
  25, 126,
  25, 127,
  25, 129,
  25, 131,
  25, 132,
  25, 134,
  25, 136,
  25, 138,
  25, 139,
  25, 141,
  25, 143,
  25, 144,
  25, 146,
  25, 148,
  25, 150,
  25, 152,
  25, 154,
  25, 158,
  25, 159,
  25, 161,
  25, 162,
  25, 164,
  25, 165,
  25, 168,
  25, 171,
  25, 173,
  25, 175,
  25, 176,
  25, 178,
  25, 179,
  25, 180,
  25, 182,
  25, 183,
  25, 184,
  25, 185,
  25, 189,
  25, 190,
  25, 191,
  25, 194,
  25, 195,
  25, 196,
  25, 198,
  25, 199,
  25, 201,
  25, 202,
  25, 205,
  25, 209,
  25, 210,
  25, 212,
  25, 213,
  25, 214,
  25, 217,
  25, 219,
  25, 221,
  25, 222,
  25, 223,
  25, 225,
  25, 228,
  25, 229,
  25, 231,
  25, 235,
  25, 236,
  25, 237,
  25, 239,
  25, 241,
  25, 243,
  25, 245,
  25, 247,
  25, 248,
  25, 249,
  25, 250,
  25, 255,
  25, 261,
  25, 265,
  25, 266,
  25, 268,
  25, 269,
  25, 274,
  25, 275,
  25, 276,
  25, 277,
  25, 279,
  25, 281,
  25, 283,
  25, 285,
  25, 286,
  25, 292,
  25, 295,
  25, 298,
  25, 299,
  26, 31,
  26, 32,
  26, 33,
  26, 36,
  26, 37,
  26, 43,
  26, 44,
  26, 45,
  26, 46,
  26, 47,
  26, 49,
  26, 53,
  26, 54,
  26, 55,
  26, 57,
  26, 58,
  26, 62,
  26, 63,
  26, 65,
  26, 66,
  26, 68,
  26, 69,
  26, 70,
  26, 71,
  26, 72,
  26, 76,
  26, 78,
  26, 81,
  26, 87,
  26, 89,
  26, 90,
  26, 92,
  26, 93,
  26, 95,
  26, 97,
  26, 98,
  26, 101,
  26, 102,
  26, 103,
  26, 105,
  26, 107,
  26, 109,
  26, 114,
  26, 115,
  26, 118,
  26, 119,
  26, 120,
  26, 124,
  26, 125,
  26, 126,
  26, 127,
  26, 128,
  26, 130,
  26, 132,
  26, 135,
  26, 137,
  26, 138,
  26, 140,
  26, 147,
  26, 149,
  26, 150,
  26, 151,
  26, 152,
  26, 153,
  26, 154,
  26, 155,
  26, 156,
  26, 157,
  26, 160,
  26, 163,
  26, 164,
  26, 165,
  26, 167,
  26, 173,
  26, 174,
  26, 178,
  26, 181,
  26, 187,
  26, 189,
  26, 193,
  26, 200,
  26, 204,
  26, 205,
  26, 207,
  26, 209,
  26, 215,
  26, 218,
  26, 219,
  26, 224,
  26, 227,
  26, 228,
  26, 229,
  26, 233,
  26, 234,
  26, 235,
  26, 238,
  26, 240,
  26, 242,
  26, 244,
  26, 246,
  26, 248,
  26, 249,
  26, 250,
  26, 254,
  26, 257,
  26, 258,
  26, 259,
  26, 260,
  26, 262,
  26, 263,
  26, 265,
  26, 267,
  26, 270,
  26, 273,
  26, 274,
  26, 280,
  26, 283,
  26, 285,
  26, 286,
  26, 288,
  26, 293,
  26, 294,
  26, 296,
  26, 299,
  27, 28,
  27, 29,
  27, 33,
  27, 34,
  27, 37,
  27, 38,
  27, 39,
  27, 41,
  27, 46,
  27, 47,
  27, 50,
  27, 51,
  27, 53,
  27, 57,
  27, 58,
  27, 59,
  27, 60,
  27, 62,
  27, 63,
  27, 66,
  27, 68,
  27, 69,
  27, 70,
  27, 73,
  27, 76,
  27, 77,
  27, 78,
  27, 80,
  27, 81,
  27, 82,
  27, 83,
  27, 85,
  27, 87,
  27, 88,
  27, 89,
  27, 90,
  27, 91,
  27, 95,
  27, 96,
  27, 98,
  27, 99,
  27, 100,
  27, 101,
  27, 102,
  27, 103,
  27, 104,
  27, 105,
  27, 106,
  27, 108,
  27, 112,
  27, 114,
  27, 115,
  27, 121,
  27, 124,
  27, 125,
  27, 126,
  27, 129,
  27, 130,
  27, 132,
  27, 133,
  27, 134,
  27, 137,
  27, 141,
  27, 144,
  27, 145,
  27, 146,
  27, 151,
  27, 154,
  27, 155,
  27, 157,
  27, 164,
  27, 166,
  27, 168,
  27, 169,
  27, 170,
  27, 171,
  27, 174,
  27, 176,
  27, 178,
  27, 182,
  27, 183,
  27, 184,
  27, 185,
  27, 186,
  27, 187,
  27, 188,
  27, 189,
  27, 192,
  27, 194,
  27, 196,
  27, 199,
  27, 201,
  27, 202,
  27, 204,
  27, 206,
  27, 208,
  27, 210,
  27, 211,
  27, 213,
  27, 214,
  27, 215,
  27, 217,
  27, 219,
  27, 220,
  27, 222,
  27, 224,
  27, 225,
  27, 226,
  27, 227,
  27, 228,
  27, 234,
  27, 238,
  27, 240,
  27, 243,
  27, 245,
  27, 246,
  27, 247,
  27, 249,
  27, 252,
  27, 254,
  27, 255,
  27, 256,
  27, 257,
  27, 260,
  27, 262,
  27, 263,
  27, 264,
  27, 265,
  27, 266,
  27, 269,
  27, 275,
  27, 276,
  27, 277,
  27, 280,
  27, 281,
  27, 284,
  27, 285,
  27, 291,
  27, 294,
  27, 295,
  27, 299,
  28, 29,
  28, 34,
  28, 38,
  28, 39,
  28, 40,
  28, 41,
  28, 49,
  28, 50,
  28, 53,
  28, 57,
  28, 59,
  28, 62,
  28, 63,
  28, 64,
  28, 65,
  28, 66,
  28, 67,
  28, 71,
  28, 74,
  28, 75,
  28, 77,
  28, 80,
  28, 81,
  28, 83,
  28, 85,
  28, 89,
  28, 94,
  28, 96,
  28, 101,
  28, 104,
  28, 108,
  28, 109,
  28, 112,
  28, 113,
  28, 114,
  28, 116,
  28, 117,
  28, 119,
  28, 120,
  28, 121,
  28, 124,
  28, 126,
  28, 129,
  28, 132,
  28, 135,
  28, 136,
  28, 138,
  28, 139,
  28, 145,
  28, 149,
  28, 150,
  28, 153,
  28, 154,
  28, 160,
  28, 161,
  28, 165,
  28, 168,
  28, 170,
  28, 171,
  28, 172,
  28, 174,
  28, 175,
  28, 181,
  28, 185,
  28, 186,
  28, 187,
  28, 189,
  28, 193,
  28, 195,
  28, 197,
  28, 201,
  28, 203,
  28, 205,
  28, 206,
  28, 207,
  28, 209,
  28, 211,
  28, 212,
  28, 213,
  28, 216,
  28, 220,
  28, 221,
  28, 222,
  28, 223,
  28, 225,
  28, 229,
  28, 231,
  28, 233,
  28, 235,
  28, 237,
  28, 239,
  28, 241,
  28, 242,
  28, 246,
  28, 248,
  28, 249,
  28, 250,
  28, 251,
  28, 253,
  28, 256,
  28, 257,
  28, 260,
  28, 262,
  28, 263,
  28, 265,
  28, 267,
  28, 268,
  28, 271,
  28, 272,
  28, 276,
  28, 281,
  28, 282,
  28, 283,
  28, 286,
  28, 287,
  28, 288,
  28, 289,
  28, 290,
  28, 291,
  28, 292,
  28, 293,
  28, 295,
  28, 297,
  28, 298,
  28, 299,
  28, 300,
  29, 32,
  29, 34,
  29, 35,
  29, 39,
  29, 40,
  29, 42,
  29, 43,
  29, 44,
  29, 46,
  29, 50,
  29, 52,
  29, 53,
  29, 54,
  29, 55,
  29, 64,
  29, 66,
  29, 70,
  29, 73,
  29, 74,
  29, 76,
  29, 77,
  29, 80,
  29, 82,
  29, 83,
  29, 84,
  29, 86,
  29, 88,
  29, 90,
  29, 91,
  29, 101,
  29, 105,
  29, 106,
  29, 107,
  29, 108,
  29, 109,
  29, 111,
  29, 112,
  29, 114,
  29, 115,
  29, 116,
  29, 117,
  29, 118,
  29, 122,
  29, 125,
  29, 127,
  29, 128,
  29, 130,
  29, 131,
  29, 134,
  29, 135,
  29, 136,
  29, 137,
  29, 138,
  29, 139,
  29, 140,
  29, 144,
  29, 145,
  29, 146,
  29, 155,
  29, 157,
  29, 159,
  29, 161,
  29, 163,
  29, 164,
  29, 166,
  29, 167,
  29, 168,
  29, 174,
  29, 177,
  29, 178,
  29, 181,
  29, 183,
  29, 185,
  29, 186,
  29, 187,
  29, 188,
  29, 189,
  29, 190,
  29, 194,
  29, 195,
  29, 197,
  29, 200,
  29, 201,
  29, 203,
  29, 204,
  29, 205,
  29, 209,
  29, 210,
  29, 211,
  29, 215,
  29, 216,
  29, 218,
  29, 219,
  29, 229,
  29, 230,
  29, 233,
  29, 235,
  29, 236,
  29, 237,
  29, 238,
  29, 239,
  29, 243,
  29, 246,
  29, 247,
  29, 248,
  29, 249,
  29, 254,
  29, 255,
  29, 258,
  29, 259,
  29, 260,
  29, 262,
  29, 264,
  29, 265,
  29, 267,
  29, 268,
  29, 269,
  29, 271,
  29, 272,
  29, 273,
  29, 277,
  29, 278,
  29, 279,
  29, 281,
  29, 283,
  29, 284,
  29, 285,
  29, 286,
  29, 292,
  29, 295,
  29, 296,
  29, 300,
  30, 34,
  30, 36,
  30, 37,
  30, 39,
  30, 42,
  30, 45,
  30, 46,
  30, 49,
  30, 51,
  30, 52,
  30, 53,
  30, 54,
  30, 55,
  30, 56,
  30, 58,
  30, 65,
  30, 70,
  30, 71,
  30, 72,
  30, 77,
  30, 79,
  30, 81,
  30, 82,
  30, 83,
  30, 84,
  30, 86,
  30, 90,
  30, 91,
  30, 93,
  30, 96,
  30, 101,
  30, 102,
  30, 106,
  30, 109,
  30, 111,
  30, 114,
  30, 116,
  30, 118,
  30, 119,
  30, 120,
  30, 126,
  30, 128,
  30, 129,
  30, 135,
  30, 136,
  30, 137,
  30, 138,
  30, 139,
  30, 140,
  30, 142,
  30, 146,
  30, 148,
  30, 156,
  30, 157,
  30, 158,
  30, 161,
  30, 162,
  30, 164,
  30, 165,
  30, 170,
  30, 172,
  30, 174,
  30, 183,
  30, 185,
  30, 187,
  30, 188,
  30, 189,
  30, 192,
  30, 193,
  30, 194,
  30, 196,
  30, 199,
  30, 201,
  30, 202,
  30, 203,
  30, 205,
  30, 206,
  30, 207,
  30, 210,
  30, 211,
  30, 214,
  30, 215,
  30, 216,
  30, 218,
  30, 223,
  30, 224,
  30, 227,
  30, 228,
  30, 229,
  30, 231,
  30, 232,
  30, 233,
  30, 235,
  30, 237,
  30, 239,
  30, 240,
  30, 241,
  30, 242,
  30, 243,
  30, 248,
  30, 254,
  30, 256,
  30, 257,
  30, 260,
  30, 268,
  30, 271,
  30, 273,
  30, 274,
  30, 278,
  30, 280,
  30, 282,
  30, 285,
  30, 286,
  30, 287,
  30, 289,
  30, 294,
  30, 296,
  30, 299,
  30, 300,
  31, 33,
  31, 34,
  31, 35,
  31, 36,
  31, 39,
  31, 41,
  31, 45,
  31, 46,
  31, 48,
  31, 49,
  31, 50,
  31, 52,
  31, 54,
  31, 56,
  31, 58,
  31, 59,
  31, 60,
  31, 61,
  31, 62,
  31, 63,
  31, 65,
  31, 66,
  31, 67,
  31, 68,
  31, 70,
  31, 71,
  31, 72,
  31, 74,
  31, 76,
  31, 77,
  31, 79,
  31, 84,
  31, 86,
  31, 87,
  31, 95,
  31, 99,
  31, 103,
  31, 104,
  31, 105,
  31, 106,
  31, 107,
  31, 110,
  31, 113,
  31, 114,
  31, 116,
  31, 117,
  31, 118,
  31, 120,
  31, 122,
  31, 124,
  31, 127,
  31, 128,
  31, 132,
  31, 133,
  31, 134,
  31, 136,
  31, 138,
  31, 139,
  31, 142,
  31, 145,
  31, 146,
  31, 147,
  31, 148,
  31, 149,
  31, 154,
  31, 155,
  31, 159,
  31, 162,
  31, 163,
  31, 167,
  31, 170,
  31, 172,
  31, 177,
  31, 178,
  31, 179,
  31, 180,
  31, 181,
  31, 182,
  31, 183,
  31, 184,
  31, 185,
  31, 186,
  31, 187,
  31, 191,
  31, 194,
  31, 195,
  31, 196,
  31, 197,
  31, 198,
  31, 201,
  31, 202,
  31, 203,
  31, 204,
  31, 206,
  31, 207,
  31, 208,
  31, 209,
  31, 213,
  31, 214,
  31, 216,
  31, 218,
  31, 222,
  31, 223,
  31, 224,
  31, 225,
  31, 226,
  31, 228,
  31, 230,
  31, 232,
  31, 233,
  31, 235,
  31, 238,
  31, 239,
  31, 244,
  31, 245,
  31, 247,
  31, 249,
  31, 250,
  31, 251,
  31, 252,
  31, 253,
  31, 255,
  31, 257,
  31, 258,
  31, 259,
  31, 263,
  31, 264,
  31, 266,
  31, 267,
  31, 268,
  31, 271,
  31, 272,
  31, 273,
  31, 274,
  31, 277,
  31, 278,
  31, 279,
  31, 280,
  31, 282,
  31, 283,
  31, 285,
  31, 287,
  31, 290,
  31, 291,
  31, 292,
  31, 293,
  31, 295,
  31, 297,
  31, 298,
  31, 299,
  32, 33,
  32, 34,
  32, 39,
  32, 40,
  32, 44,
  32, 45,
  32, 46,
  32, 49,
  32, 51,
  32, 52,
  32, 58,
  32, 59,
  32, 68,
  32, 69,
  32, 71,
  32, 75,
  32, 77,
  32, 82,
  32, 85,
  32, 88,
  32, 93,
  32, 94,
  32, 96,
  32, 97,
  32, 99,
  32, 100,
  32, 101,
  32, 103,
  32, 106,
  32, 108,
  32, 109,
  32, 110,
  32, 111,
  32, 113,
  32, 115,
  32, 120,
  32, 123,
  32, 130,
  32, 132,
  32, 134,
  32, 136,
  32, 139,
  32, 140,
  32, 143,
  32, 145,
  32, 146,
  32, 147,
  32, 151,
  32, 156,
  32, 159,
  32, 160,
  32, 163,
  32, 165,
  32, 167,
  32, 172,
  32, 173,
  32, 175,
  32, 176,
  32, 177,
  32, 178,
  32, 180,
  32, 183,
  32, 184,
  32, 185,
  32, 186,
  32, 188,
  32, 191,
  32, 192,
  32, 193,
  32, 194,
  32, 196,
  32, 199,
  32, 200,
  32, 201,
  32, 204,
  32, 208,
  32, 209,
  32, 210,
  32, 215,
  32, 217,
  32, 218,
  32, 219,
  32, 220,
  32, 224,
  32, 225,
  32, 228,
  32, 230,
  32, 231,
  32, 239,
  32, 240,
  32, 243,
  32, 244,
  32, 245,
  32, 246,
  32, 247,
  32, 248,
  32, 251,
  32, 252,
  32, 253,
  32, 254,
  32, 259,
  32, 261,
  32, 262,
  32, 264,
  32, 265,
  32, 266,
  32, 267,
  32, 268,
  32, 269,
  32, 276,
  32, 278,
  32, 279,
  32, 280,
  32, 281,
  32, 282,
  32, 284,
  32, 285,
  32, 289,
  32, 290,
  32, 291,
  32, 292,
  32, 293,
  32, 294,
  32, 295,
  32, 296,
  32, 297,
  32, 298,
  32, 300,
  33, 35,
  33, 38,
  33, 39,
  33, 42,
  33, 43,
  33, 45,
  33, 47,
  33, 48,
  33, 53,
  33, 54,
  33, 56,
  33, 60,
  33, 64,
  33, 67,
  33, 69,
  33, 72,
  33, 75,
  33, 80,
  33, 81,
  33, 83,
  33, 88,
  33, 89,
  33, 92,
  33, 96,
  33, 97,
  33, 100,
  33, 102,
  33, 103,
  33, 108,
  33, 109,
  33, 110,
  33, 118,
  33, 119,
  33, 120,
  33, 122,
  33, 125,
  33, 126,
  33, 127,
  33, 129,
  33, 133,
  33, 135,
  33, 137,
  33, 146,
  33, 147,
  33, 148,
  33, 149,
  33, 150,
  33, 151,
  33, 153,
  33, 154,
  33, 155,
  33, 156,
  33, 160,
  33, 161,
  33, 163,
  33, 167,
  33, 169,
  33, 170,
  33, 171,
  33, 175,
  33, 177,
  33, 178,
  33, 181,
  33, 182,
  33, 185,
  33, 186,
  33, 189,
  33, 190,
  33, 191,
  33, 192,
  33, 195,
  33, 196,
  33, 197,
  33, 198,
  33, 200,
  33, 209,
  33, 213,
  33, 214,
  33, 215,
  33, 216,
  33, 217,
  33, 221,
  33, 222,
  33, 225,
  33, 228,
  33, 229,
  33, 230,
  33, 232,
  33, 233,
  33, 234,
  33, 235,
  33, 236,
  33, 237,
  33, 239,
  33, 240,
  33, 241,
  33, 242,
  33, 244,
  33, 245,
  33, 247,
  33, 249,
  33, 251,
  33, 255,
  33, 256,
  33, 259,
  33, 260,
  33, 261,
  33, 262,
  33, 263,
  33, 264,
  33, 265,
  33, 266,
  33, 270,
  33, 272,
  33, 274,
  33, 275,
  33, 277,
  33, 279,
  33, 281,
  33, 283,
  33, 285,
  33, 286,
  33, 288,
  33, 289,
  33, 290,
  33, 293,
  33, 298,
  33, 299,
  34, 37,
  34, 42,
  34, 46,
  34, 48,
  34, 49,
  34, 53,
  34, 54,
  34, 55,
  34, 56,
  34, 58,
  34, 59,
  34, 60,
  34, 61,
  34, 62,
  34, 67,
  34, 69,
  34, 71,
  34, 73,
  34, 74,
  34, 77,
  34, 78,
  34, 79,
  34, 80,
  34, 81,
  34, 85,
  34, 86,
  34, 87,
  34, 92,
  34, 93,
  34, 94,
  34, 96,
  34, 97,
  34, 98,
  34, 99,
  34, 100,
  34, 101,
  34, 102,
  34, 109,
  34, 111,
  34, 114,
  34, 116,
  34, 117,
  34, 121,
  34, 127,
  34, 128,
  34, 130,
  34, 131,
  34, 133,
  34, 134,
  34, 135,
  34, 137,
  34, 146,
  34, 147,
  34, 150,
  34, 153,
  34, 155,
  34, 156,
  34, 157,
  34, 161,
  34, 164,
  34, 165,
  34, 166,
  34, 168,
  34, 169,
  34, 170,
  34, 171,
  34, 172,
  34, 177,
  34, 178,
  34, 180,
  34, 181,
  34, 186,
  34, 188,
  34, 191,
  34, 194,
  34, 197,
  34, 202,
  34, 204,
  34, 206,
  34, 207,
  34, 210,
  34, 211,
  34, 214,
  34, 215,
  34, 219,
  34, 221,
  34, 222,
  34, 223,
  34, 225,
  34, 226,
  34, 229,
  34, 230,
  34, 231,
  34, 233,
  34, 234,
  34, 236,
  34, 237,
  34, 238,
  34, 240,
  34, 242,
  34, 244,
  34, 246,
  34, 247,
  34, 249,
  34, 252,
  34, 253,
  34, 256,
  34, 258,
  34, 259,
  34, 260,
  34, 264,
  34, 265,
  34, 267,
  34, 268,
  34, 270,
  34, 271,
  34, 273,
  34, 274,
  34, 275,
  34, 277,
  34, 279,
  34, 281,
  34, 283,
  34, 289,
  34, 291,
  34, 294,
  34, 295,
  34, 299,
  35, 37,
  35, 38,
  35, 39,
  35, 40,
  35, 42,
  35, 45,
  35, 47,
  35, 48,
  35, 49,
  35, 51,
  35, 56,
  35, 57,
  35, 58,
  35, 59,
  35, 60,
  35, 66,
  35, 67,
  35, 69,
  35, 70,
  35, 71,
  35, 75,
  35, 76,
  35, 77,
  35, 78,
  35, 79,
  35, 80,
  35, 83,
  35, 86,
  35, 87,
  35, 89,
  35, 90,
  35, 95,
  35, 96,
  35, 100,
  35, 104,
  35, 105,
  35, 107,
  35, 109,
  35, 110,
  35, 112,
  35, 113,
  35, 114,
  35, 116,
  35, 118,
  35, 123,
  35, 124,
  35, 127,
  35, 128,
  35, 138,
  35, 141,
  35, 142,
  35, 144,
  35, 145,
  35, 149,
  35, 150,
  35, 153,
  35, 155,
  35, 156,
  35, 157,
  35, 160,
  35, 161,
  35, 163,
  35, 164,
  35, 165,
  35, 170,
  35, 171,
  35, 172,
  35, 173,
  35, 174,
  35, 176,
  35, 181,
  35, 182,
  35, 185,
  35, 187,
  35, 190,
  35, 191,
  35, 194,
  35, 197,
  35, 199,
  35, 201,
  35, 202,
  35, 204,
  35, 206,
  35, 210,
  35, 212,
  35, 213,
  35, 214,
  35, 219,
  35, 222,
  35, 223,
  35, 225,
  35, 226,
  35, 227,
  35, 231,
  35, 236,
  35, 238,
  35, 240,
  35, 242,
  35, 244,
  35, 247,
  35, 248,
  35, 252,
  35, 254,
  35, 256,
  35, 257,
  35, 258,
  35, 259,
  35, 261,
  35, 262,
  35, 263,
  35, 264,
  35, 269,
  35, 270,
  35, 273,
  35, 276,
  35, 277,
  35, 278,
  35, 279,
  35, 280,
  35, 282,
  35, 283,
  35, 284,
  35, 285,
  35, 286,
  35, 287,
  35, 289,
  35, 290,
  35, 295,
  35, 296,
  35, 297,
  35, 299,
  36, 40,
  36, 41,
  36, 50,
  36, 53,
  36, 54,
  36, 56,
  36, 57,
  36, 59,
  36, 60,
  36, 61,
  36, 63,
  36, 64,
  36, 65,
  36, 70,
  36, 74,
  36, 77,
  36, 78,
  36, 79,
  36, 80,
  36, 81,
  36, 83,
  36, 86,
  36, 87,
  36, 88,
  36, 89,
  36, 90,
  36, 93,
  36, 96,
  36, 97,
  36, 99,
  36, 104,
  36, 105,
  36, 107,
  36, 110,
  36, 111,
  36, 113,
  36, 117,
  36, 118,
  36, 119,
  36, 120,
  36, 124,
  36, 127,
  36, 130,
  36, 133,
  36, 135,
  36, 136,
  36, 138,
  36, 139,
  36, 140,
  36, 143,
  36, 144,
  36, 145,
  36, 148,
  36, 150,
  36, 151,
  36, 152,
  36, 153,
  36, 155,
  36, 156,
  36, 157,
  36, 160,
  36, 161,
  36, 163,
  36, 164,
  36, 166,
  36, 167,
  36, 169,
  36, 171,
  36, 175,
  36, 178,
  36, 179,
  36, 180,
  36, 181,
  36, 183,
  36, 186,
  36, 187,
  36, 189,
  36, 190,
  36, 194,
  36, 195,
  36, 196,
  36, 199,
  36, 200,
  36, 201,
  36, 203,
  36, 205,
  36, 211,
  36, 212,
  36, 213,
  36, 214,
  36, 216,
  36, 218,
  36, 219,
  36, 220,
  36, 223,
  36, 224,
  36, 226,
  36, 229,
  36, 232,
  36, 234,
  36, 236,
  36, 238,
  36, 240,
  36, 241,
  36, 243,
  36, 244,
  36, 245,
  36, 246,
  36, 247,
  36, 248,
  36, 250,
  36, 251,
  36, 252,
  36, 259,
  36, 264,
  36, 265,
  36, 266,
  36, 268,
  36, 269,
  36, 270,
  36, 272,
  36, 274,
  36, 277,
  36, 278,
  36, 279,
  36, 281,
  36, 285,
  36, 288,
  36, 290,
  36, 291,
  36, 296,
  36, 297,
  36, 298,
  36, 300,
  37, 39,
  37, 41,
  37, 44,
  37, 48,
  37, 49,
  37, 50,
  37, 52,
  37, 53,
  37, 54,
  37, 55,
  37, 56,
  37, 57,
  37, 58,
  37, 59,
  37, 63,
  37, 68,
  37, 70,
  37, 78,
  37, 80,
  37, 81,
  37, 82,
  37, 84,
  37, 85,
  37, 87,
  37, 88,
  37, 89,
  37, 92,
  37, 93,
  37, 97,
  37, 103,
  37, 106,
  37, 110,
  37, 112,
  37, 113,
  37, 116,
  37, 120,
  37, 121,
  37, 123,
  37, 125,
  37, 130,
  37, 131,
  37, 132,
  37, 133,
  37, 135,
  37, 136,
  37, 140,
  37, 142,
  37, 144,
  37, 147,
  37, 150,
  37, 151,
  37, 154,
  37, 156,
  37, 157,
  37, 158,
  37, 163,
  37, 168,
  37, 171,
  37, 172,
  37, 173,
  37, 175,
  37, 176,
  37, 177,
  37, 179,
  37, 183,
  37, 187,
  37, 193,
  37, 195,
  37, 198,
  37, 201,
  37, 206,
  37, 210,
  37, 214,
  37, 215,
  37, 217,
  37, 218,
  37, 221,
  37, 222,
  37, 223,
  37, 225,
  37, 226,
  37, 227,
  37, 233,
  37, 234,
  37, 238,
  37, 239,
  37, 240,
  37, 243,
  37, 244,
  37, 248,
  37, 251,
  37, 252,
  37, 256,
  37, 257,
  37, 259,
  37, 260,
  37, 261,
  37, 262,
  37, 269,
  37, 272,
  37, 274,
  37, 276,
  37, 277,
  37, 280,
  37, 282,
  37, 283,
  37, 286,
  37, 287,
  37, 290,
  37, 292,
  37, 297,
  37, 298,
  38, 39,
  38, 41,
  38, 42,
  38, 43,
  38, 45,
  38, 49,
  38, 51,
  38, 52,
  38, 55,
  38, 58,
  38, 59,
  38, 61,
  38, 66,
  38, 69,
  38, 70,
  38, 72,
  38, 73,
  38, 77,
  38, 79,
  38, 82,
  38, 83,
  38, 84,
  38, 85,
  38, 91,
  38, 92,
  38, 93,
  38, 94,
  38, 98,
  38, 99,
  38, 103,
  38, 104,
  38, 105,
  38, 106,
  38, 107,
  38, 108,
  38, 109,
  38, 112,
  38, 113,
  38, 114,
  38, 115,
  38, 117,
  38, 118,
  38, 119,
  38, 120,
  38, 121,
  38, 122,
  38, 123,
  38, 125,
  38, 126,
  38, 127,
  38, 128,
  38, 129,
  38, 131,
  38, 134,
  38, 135,
  38, 137,
  38, 138,
  38, 139,
  38, 141,
  38, 143,
  38, 145,
  38, 155,
  38, 157,
  38, 159,
  38, 163,
  38, 169,
  38, 173,
  38, 174,
  38, 181,
  38, 183,
  38, 187,
  38, 189,
  38, 190,
  38, 195,
  38, 196,
  38, 198,
  38, 203,
  38, 204,
  38, 207,
  38, 209,
  38, 214,
  38, 216,
  38, 217,
  38, 220,
  38, 222,
  38, 223,
  38, 224,
  38, 225,
  38, 226,
  38, 229,
  38, 232,
  38, 233,
  38, 234,
  38, 235,
  38, 236,
  38, 238,
  38, 240,
  38, 242,
  38, 243,
  38, 244,
  38, 245,
  38, 247,
  38, 251,
  38, 252,
  38, 255,
  38, 257,
  38, 259,
  38, 260,
  38, 265,
  38, 266,
  38, 267,
  38, 268,
  38, 269,
  38, 270,
  38, 271,
  38, 273,
  38, 274,
  38, 275,
  38, 279,
  38, 280,
  38, 282,
  38, 284,
  38, 285,
  38, 288,
  38, 289,
  38, 298,
  39, 43,
  39, 45,
  39, 46,
  39, 47,
  39, 49,
  39, 50,
  39, 54,
  39, 56,
  39, 57,
  39, 63,
  39, 65,
  39, 66,
  39, 67,
  39, 68,
  39, 71,
  39, 74,
  39, 75,
  39, 78,
  39, 79,
  39, 81,
  39, 82,
  39, 84,
  39, 85,
  39, 90,
  39, 91,
  39, 95,
  39, 96,
  39, 98,
  39, 105,
  39, 107,
  39, 108,
  39, 109,
  39, 113,
  39, 117,
  39, 118,
  39, 120,
  39, 121,
  39, 122,
  39, 128,
  39, 130,
  39, 131,
  39, 134,
  39, 136,
  39, 141,
  39, 144,
  39, 146,
  39, 152,
  39, 154,
  39, 158,
  39, 159,
  39, 160,
  39, 164,
  39, 166,
  39, 167,
  39, 169,
  39, 171,
  39, 174,
  39, 175,
  39, 176,
  39, 177,
  39, 178,
  39, 179,
  39, 186,
  39, 192,
  39, 193,
  39, 200,
  39, 201,
  39, 202,
  39, 204,
  39, 207,
  39, 210,
  39, 211,
  39, 212,
  39, 215,
  39, 218,
  39, 221,
  39, 223,
  39, 224,
  39, 226,
  39, 227,
  39, 230,
  39, 232,
  39, 237,
  39, 239,
  39, 240,
  39, 243,
  39, 245,
  39, 246,
  39, 248,
  39, 249,
  39, 250,
  39, 256,
  39, 257,
  39, 259,
  39, 260,
  39, 264,
  39, 266,
  39, 268,
  39, 269,
  39, 270,
  39, 271,
  39, 274,
  39, 277,
  39, 278,
  39, 279,
  39, 281,
  39, 282,
  39, 284,
  39, 289,
  39, 290,
  39, 291,
  39, 293,
  39, 296,
  39, 298,
  39, 299,
  39, 300,
  40, 42,
  40, 44,
  40, 45,
  40, 46,
  40, 48,
  40, 49,
  40, 51,
  40, 52,
  40, 53,
  40, 58,
  40, 61,
  40, 64,
  40, 65,
  40, 67,
  40, 68,
  40, 69,
  40, 70,
  40, 71,
  40, 72,
  40, 73,
  40, 74,
  40, 75,
  40, 77,
  40, 78,
  40, 80,
  40, 82,
  40, 83,
  40, 84,
  40, 86,
  40, 87,
  40, 88,
  40, 91,
  40, 94,
  40, 95,
  40, 96,
  40, 100,
  40, 105,
  40, 106,
  40, 107,
  40, 108,
  40, 113,
  40, 114,
  40, 115,
  40, 118,
  40, 120,
  40, 122,
  40, 124,
  40, 127,
  40, 128,
  40, 129,
  40, 130,
  40, 133,
  40, 134,
  40, 135,
  40, 136,
  40, 138,
  40, 142,
  40, 145,
  40, 146,
  40, 149,
  40, 150,
  40, 151,
  40, 152,
  40, 154,
  40, 158,
  40, 160,
  40, 161,
  40, 165,
  40, 167,
  40, 168,
  40, 169,
  40, 173,
  40, 174,
  40, 175,
  40, 176,
  40, 178,
  40, 180,
  40, 183,
  40, 186,
  40, 188,
  40, 189,
  40, 191,
  40, 194,
  40, 195,
  40, 196,
  40, 203,
  40, 206,
  40, 207,
  40, 210,
  40, 211,
  40, 212,
  40, 213,
  40, 214,
  40, 215,
  40, 217,
  40, 218,
  40, 219,
  40, 221,
  40, 222,
  40, 223,
  40, 224,
  40, 225,
  40, 226,
  40, 227,
  40, 232,
  40, 236,
  40, 237,
  40, 241,
  40, 242,
  40, 248,
  40, 250,
  40, 251,
  40, 252,
  40, 254,
  40, 255,
  40, 256,
  40, 258,
  40, 259,
  40, 261,
  40, 264,
  40, 265,
  40, 266,
  40, 268,
  40, 269,
  40, 272,
  40, 274,
  40, 275,
  40, 276,
  40, 281,
  40, 284,
  40, 286,
  40, 287,
  40, 292,
  40, 293,
  40, 294,
  40, 295,
  40, 298,
  40, 300,
  41, 43,
  41, 44,
  41, 45,
  41, 47,
  41, 48,
  41, 51,
  41, 52,
  41, 54,
  41, 57,
  41, 58,
  41, 61,
  41, 62,
  41, 63,
  41, 66,
  41, 70,
  41, 71,
  41, 72,
  41, 74,
  41, 75,
  41, 78,
  41, 79,
  41, 81,
  41, 82,
  41, 86,
  41, 87,
  41, 89,
  41, 90,
  41, 91,
  41, 92,
  41, 93,
  41, 94,
  41, 95,
  41, 97,
  41, 98,
  41, 100,
  41, 101,
  41, 103,
  41, 105,
  41, 108,
  41, 118,
  41, 119,
  41, 123,
  41, 124,
  41, 126,
  41, 127,
  41, 131,
  41, 132,
  41, 133,
  41, 134,
  41, 135,
  41, 136,
  41, 137,
  41, 138,
  41, 142,
  41, 146,
  41, 147,
  41, 150,
  41, 152,
  41, 153,
  41, 155,
  41, 157,
  41, 158,
  41, 159,
  41, 160,
  41, 161,
  41, 162,
  41, 163,
  41, 164,
  41, 165,
  41, 167,
  41, 169,
  41, 172,
  41, 173,
  41, 174,
  41, 175,
  41, 176,
  41, 182,
  41, 185,
  41, 187,
  41, 188,
  41, 189,
  41, 190,
  41, 191,
  41, 192,
  41, 194,
  41, 195,
  41, 199,
  41, 200,
  41, 201,
  41, 202,
  41, 203,
  41, 213,
  41, 215,
  41, 216,
  41, 218,
  41, 220,
  41, 221,
  41, 223,
  41, 226,
  41, 227,
  41, 229,
  41, 230,
  41, 232,
  41, 233,
  41, 234,
  41, 238,
  41, 241,
  41, 245,
  41, 246,
  41, 247,
  41, 250,
  41, 251,
  41, 252,
  41, 253,
  41, 254,
  41, 257,
  41, 259,
  41, 261,
  41, 263,
  41, 264,
  41, 265,
  41, 267,
  41, 268,
  41, 269,
  41, 270,
  41, 271,
  41, 276,
  41, 278,
  41, 281,
  41, 282,
  41, 285,
  41, 286,
  41, 288,
  41, 289,
  41, 290,
  41, 293,
  41, 297,
  41, 298,
  41, 300,
  42, 44,
  42, 48,
  42, 49,
  42, 50,
  42, 55,
  42, 56,
  42, 58,
  42, 59,
  42, 63,
  42, 64,
  42, 66,
  42, 67,
  42, 70,
  42, 72,
  42, 74,
  42, 80,
  42, 88,
  42, 91,
  42, 93,
  42, 94,
  42, 97,
  42, 98,
  42, 99,
  42, 101,
  42, 102,
  42, 104,
  42, 108,
  42, 109,
  42, 110,
  42, 116,
  42, 119,
  42, 120,
  42, 121,
  42, 123,
  42, 124,
  42, 126,
  42, 130,
  42, 131,
  42, 132,
  42, 134,
  42, 138,
  42, 139,
  42, 143,
  42, 146,
  42, 147,
  42, 148,
  42, 152,
  42, 153,
  42, 162,
  42, 166,
  42, 167,
  42, 168,
  42, 176,
  42, 177,
  42, 181,
  42, 182,
  42, 183,
  42, 185,
  42, 186,
  42, 187,
  42, 188,
  42, 190,
  42, 191,
  42, 193,
  42, 195,
  42, 197,
  42, 198,
  42, 200,
  42, 201,
  42, 202,
  42, 208,
  42, 211,
  42, 212,
  42, 217,
  42, 221,
  42, 224,
  42, 227,
  42, 230,
  42, 231,
  42, 232,
  42, 236,
  42, 237,
  42, 240,
  42, 241,
  42, 242,
  42, 244,
  42, 249,
  42, 254,
  42, 256,
  42, 260,
  42, 265,
  42, 267,
  42, 268,
  42, 271,
  42, 272,
  42, 273,
  42, 275,
  42, 279,
  42, 280,
  42, 281,
  42, 284,
  42, 285,
  42, 287,
  42, 288,
  42, 289,
  42, 292,
  42, 294,
  42, 297,
  42, 298,
  42, 300,
  43, 44,
  43, 45,
  43, 47,
  43, 51,
  43, 57,
  43, 58,
  43, 62,
  43, 63,
  43, 64,
  43, 65,
  43, 67,
  43, 70,
  43, 71,
  43, 75,
  43, 76,
  43, 78,
  43, 79,
  43, 80,
  43, 81,
  43, 82,
  43, 83,
  43, 85,
  43, 87,
  43, 89,
  43, 93,
  43, 94,
  43, 96,
  43, 100,
  43, 105,
  43, 106,
  43, 109,
  43, 110,
  43, 111,
  43, 112,
  43, 114,
  43, 122,
  43, 123,
  43, 124,
  43, 126,
  43, 128,
  43, 131,
  43, 133,
  43, 134,
  43, 135,
  43, 138,
  43, 140,
  43, 141,
  43, 142,
  43, 145,
  43, 146,
  43, 147,
  43, 148,
  43, 151,
  43, 152,
  43, 156,
  43, 161,
  43, 162,
  43, 163,
  43, 165,
  43, 166,
  43, 167,
  43, 168,
  43, 171,
  43, 173,
  43, 174,
  43, 177,
  43, 178,
  43, 186,
  43, 191,
  43, 192,
  43, 193,
  43, 194,
  43, 196,
  43, 197,
  43, 202,
  43, 204,
  43, 206,
  43, 212,
  43, 214,
  43, 215,
  43, 216,
  43, 217,
  43, 218,
  43, 219,
  43, 220,
  43, 224,
  43, 225,
  43, 227,
  43, 229,
  43, 234,
  43, 241,
  43, 242,
  43, 243,
  43, 244,
  43, 245,
  43, 247,
  43, 249,
  43, 252,
  43, 254,
  43, 255,
  43, 258,
  43, 264,
  43, 265,
  43, 267,
  43, 268,
  43, 271,
  43, 275,
  43, 276,
  43, 277,
  43, 284,
  43, 285,
  43, 286,
  43, 288,
  43, 290,
  43, 293,
  43, 294,
  43, 296,
  43, 297,
  43, 299,
  44, 45,
  44, 46,
  44, 47,
  44, 48,
  44, 51,
  44, 56,
  44, 59,
  44, 65,
  44, 66,
  44, 69,
  44, 70,
  44, 71,
  44, 74,
  44, 75,
  44, 76,
  44, 77,
  44, 78,
  44, 80,
  44, 87,
  44, 89,
  44, 90,
  44, 95,
  44, 96,
  44, 99,
  44, 100,
  44, 101,
  44, 103,
  44, 105,
  44, 107,
  44, 108,
  44, 110,
  44, 111,
  44, 112,
  44, 113,
  44, 116,
  44, 119,
  44, 120,
  44, 123,
  44, 125,
  44, 128,
  44, 129,
  44, 130,
  44, 132,
  44, 134,
  44, 138,
  44, 140,
  44, 144,
  44, 148,
  44, 151,
  44, 152,
  44, 154,
  44, 157,
  44, 160,
  44, 162,
  44, 163,
  44, 164,
  44, 165,
  44, 169,
  44, 172,
  44, 173,
  44, 175,
  44, 176,
  44, 178,
  44, 180,
  44, 181,
  44, 183,
  44, 185,
  44, 187,
  44, 189,
  44, 190,
  44, 191,
  44, 192,
  44, 195,
  44, 196,
  44, 198,
  44, 199,
  44, 200,
  44, 202,
  44, 203,
  44, 206,
  44, 207,
  44, 208,
  44, 209,
  44, 210,
  44, 212,
  44, 213,
  44, 215,
  44, 216,
  44, 217,
  44, 219,
  44, 220,
  44, 222,
  44, 224,
  44, 225,
  44, 231,
  44, 236,
  44, 237,
  44, 239,
  44, 240,
  44, 241,
  44, 244,
  44, 245,
  44, 253,
  44, 254,
  44, 255,
  44, 256,
  44, 260,
  44, 262,
  44, 265,
  44, 267,
  44, 269,
  44, 270,
  44, 273,
  44, 274,
  44, 277,
  44, 278,
  44, 281,
  44, 282,
  44, 283,
  44, 284,
  44, 287,
  44, 292,
  44, 293,
  44, 294,
  44, 297,
  44, 298,
  44, 299,
  44, 300,
  45, 46,
  45, 50,
  45, 51,
  45, 52,
  45, 53,
  45, 56,
  45, 57,
  45, 58,
  45, 59,
  45, 60,
  45, 63,
  45, 64,
  45, 65,
  45, 67,
  45, 68,
  45, 69,
  45, 70,
  45, 71,
  45, 72,
  45, 74,
  45, 75,
  45, 76,
  45, 77,
  45, 80,
  45, 81,
  45, 83,
  45, 87,
  45, 88,
  45, 89,
  45, 92,
  45, 93,
  45, 94,
  45, 95,
  45, 97,
  45, 99,
  45, 100,
  45, 101,
  45, 103,
  45, 104,
  45, 106,
  45, 107,
  45, 113,
  45, 114,
  45, 116,
  45, 120,
  45, 125,
  45, 126,
  45, 128,
  45, 130,
  45, 131,
  45, 134,
  45, 137,
  45, 140,
  45, 143,
  45, 145,
  45, 147,
  45, 148,
  45, 149,
  45, 151,
  45, 154,
  45, 156,
  45, 157,
  45, 158,
  45, 161,
  45, 162,
  45, 164,
  45, 166,
  45, 170,
  45, 175,
  45, 177,
  45, 178,
  45, 179,
  45, 180,
  45, 182,
  45, 183,
  45, 184,
  45, 185,
  45, 189,
  45, 192,
  45, 193,
  45, 194,
  45, 195,
  45, 196,
  45, 197,
  45, 198,
  45, 199,
  45, 201,
  45, 203,
  45, 204,
  45, 205,
  45, 208,
  45, 210,
  45, 211,
  45, 212,
  45, 214,
  45, 215,
  45, 217,
  45, 221,
  45, 224,
  45, 228,
  45, 229,
  45, 230,
  45, 231,
  45, 237,
  45, 238,
  45, 243,
  45, 245,
  45, 246,
  45, 247,
  45, 248,
  45, 250,
  45, 252,
  45, 255,
  45, 259,
  45, 262,
  45, 263,
  45, 266,
  45, 267,
  45, 268,
  45, 269,
  45, 271,
  45, 272,
  45, 273,
  45, 274,
  45, 276,
  45, 278,
  45, 281,
  45, 282,
  45, 283,
  45, 284,
  45, 287,
  45, 290,
  45, 291,
  45, 293,
  45, 294,
  45, 295,
  45, 296,
  45, 299,
  46, 47,
  46, 48,
  46, 49,
  46, 51,
  46, 53,
  46, 55,
  46, 56,
  46, 58,
  46, 61,
  46, 62,
  46, 63,
  46, 65,
  46, 66,
  46, 67,
  46, 70,
  46, 73,
  46, 74,
  46, 76,
  46, 79,
  46, 80,
  46, 81,
  46, 82,
  46, 83,
  46, 85,
  46, 89,
  46, 90,
  46, 91,
  46, 97,
  46, 98,
  46, 100,
  46, 101,
  46, 106,
  46, 109,
  46, 112,
  46, 114,
  46, 115,
  46, 116,
  46, 117,
  46, 118,
  46, 119,
  46, 125,
  46, 129,
  46, 132,
  46, 133,
  46, 134,
  46, 136,
  46, 137,
  46, 142,
  46, 143,
  46, 147,
  46, 148,
  46, 154,
  46, 155,
  46, 157,
  46, 158,
  46, 160,
  46, 164,
  46, 166,
  46, 169,
  46, 170,
  46, 174,
  46, 175,
  46, 177,
  46, 178,
  46, 181,
  46, 183,
  46, 185,
  46, 186,
  46, 188,
  46, 190,
  46, 192,
  46, 193,
  46, 195,
  46, 196,
  46, 197,
  46, 198,
  46, 200,
  46, 202,
  46, 205,
  46, 206,
  46, 207,
  46, 209,
  46, 211,
  46, 213,
  46, 219,
  46, 220,
  46, 221,
  46, 223,
  46, 228,
  46, 233,
  46, 235,
  46, 237,
  46, 238,
  46, 242,
  46, 243,
  46, 248,
  46, 249,
  46, 252,
  46, 254,
  46, 255,
  46, 259,
  46, 261,
  46, 262,
  46, 265,
  46, 266,
  46, 276,
  46, 280,
  46, 282,
  46, 284,
  46, 285,
  46, 286,
  46, 288,
  46, 293,
  46, 294,
  46, 295,
  46, 297,
  46, 298,
  46, 299,
  47, 48,
  47, 49,
  47, 52,
  47, 53,
  47, 58,
  47, 61,
  47, 63,
  47, 64,
  47, 65,
  47, 66,
  47, 68,
  47, 70,
  47, 72,
  47, 73,
  47, 80,
  47, 84,
  47, 90,
  47, 96,
  47, 97,
  47, 99,
  47, 100,
  47, 101,
  47, 103,
  47, 104,
  47, 106,
  47, 107,
  47, 108,
  47, 109,
  47, 110,
  47, 113,
  47, 116,
  47, 119,
  47, 120,
  47, 121,
  47, 122,
  47, 124,
  47, 129,
  47, 130,
  47, 133,
  47, 137,
  47, 138,
  47, 139,
  47, 140,
  47, 141,
  47, 142,
  47, 143,
  47, 148,
  47, 149,
  47, 152,
  47, 153,
  47, 157,
  47, 158,
  47, 159,
  47, 161,
  47, 162,
  47, 164,
  47, 168,
  47, 171,
  47, 174,
  47, 175,
  47, 176,
  47, 181,
  47, 182,
  47, 183,
  47, 184,
  47, 186,
  47, 191,
  47, 192,
  47, 195,
  47, 196,
  47, 199,
  47, 205,
  47, 207,
  47, 208,
  47, 211,
  47, 212,
  47, 213,
  47, 216,
  47, 217,
  47, 220,
  47, 223,
  47, 224,
  47, 226,
  47, 227,
  47, 231,
  47, 232,
  47, 233,
  47, 235,
  47, 236,
  47, 237,
  47, 241,
  47, 243,
  47, 244,
  47, 245,
  47, 246,
  47, 249,
  47, 250,
  47, 251,
  47, 253,
  47, 254,
  47, 258,
  47, 259,
  47, 260,
  47, 261,
  47, 264,
  47, 266,
  47, 267,
  47, 270,
  47, 276,
  47, 279,
  47, 280,
  47, 286,
  47, 287,
  47, 289,
  47, 291,
  47, 292,
  47, 294,
  47, 295,
  47, 300,
  48, 50,
  48, 51,
  48, 53,
  48, 61,
  48, 62,
  48, 65,
  48, 66,
  48, 68,
  48, 70,
  48, 71,
  48, 73,
  48, 80,
  48, 81,
  48, 82,
  48, 83,
  48, 86,
  48, 89,
  48, 93,
  48, 94,
  48, 96,
  48, 98,
  48, 102,
  48, 106,
  48, 107,
  48, 108,
  48, 109,
  48, 111,
  48, 115,
  48, 116,
  48, 117,
  48, 118,
  48, 119,
  48, 120,
  48, 121,
  48, 122,
  48, 125,
  48, 131,
  48, 134,
  48, 136,
  48, 137,
  48, 138,
  48, 139,
  48, 140,
  48, 142,
  48, 143,
  48, 144,
  48, 148,
  48, 150,
  48, 151,
  48, 153,
  48, 154,
  48, 155,
  48, 157,
  48, 161,
  48, 162,
  48, 163,
  48, 165,
  48, 166,
  48, 170,
  48, 171,
  48, 172,
  48, 174,
  48, 177,
  48, 179,
  48, 180,
  48, 184,
  48, 186,
  48, 189,
  48, 190,
  48, 191,
  48, 193,
  48, 194,
  48, 196,
  48, 197,
  48, 201,
  48, 202,
  48, 204,
  48, 205,
  48, 206,
  48, 207,
  48, 209,
  48, 210,
  48, 211,
  48, 215,
  48, 220,
  48, 221,
  48, 222,
  48, 225,
  48, 228,
  48, 229,
  48, 231,
  48, 233,
  48, 235,
  48, 236,
  48, 237,
  48, 243,
  48, 244,
  48, 248,
  48, 249,
  48, 251,
  48, 252,
  48, 253,
  48, 254,
  48, 256,
  48, 258,
  48, 259,
  48, 260,
  48, 261,
  48, 262,
  48, 264,
  48, 265,
  48, 267,
  48, 268,
  48, 269,
  48, 270,
  48, 272,
  48, 280,
  48, 281,
  48, 284,
  48, 285,
  48, 286,
  48, 289,
  48, 294,
  48, 295,
  48, 297,
  48, 298,
  48, 300,
  49, 50,
  49, 51,
  49, 54,
  49, 55,
  49, 58,
  49, 59,
  49, 61,
  49, 63,
  49, 64,
  49, 66,
  49, 69,
  49, 71,
  49, 75,
  49, 76,
  49, 78,
  49, 79,
  49, 81,
  49, 82,
  49, 83,
  49, 84,
  49, 86,
  49, 87,
  49, 88,
  49, 89,
  49, 90,
  49, 91,
  49, 92,
  49, 93,
  49, 95,
  49, 96,
  49, 97,
  49, 99,
  49, 100,
  49, 101,
  49, 102,
  49, 103,
  49, 105,
  49, 111,
  49, 112,
  49, 113,
  49, 114,
  49, 116,
  49, 117,
  49, 118,
  49, 119,
  49, 120,
  49, 121,
  49, 126,
  49, 128,
  49, 129,
  49, 134,
  49, 136,
  49, 137,
  49, 140,
  49, 142,
  49, 143,
  49, 145,
  49, 147,
  49, 150,
  49, 152,
  49, 156,
  49, 161,
  49, 162,
  49, 164,
  49, 167,
  49, 168,
  49, 170,
  49, 172,
  49, 174,
  49, 176,
  49, 178,
  49, 179,
  49, 182,
  49, 188,
  49, 189,
  49, 191,
  49, 192,
  49, 193,
  49, 195,
  49, 196,
  49, 198,
  49, 199,
  49, 202,
  49, 203,
  49, 204,
  49, 205,
  49, 206,
  49, 207,
  49, 209,
  49, 211,
  49, 213,
  49, 215,
  49, 218,
  49, 219,
  49, 220,
  49, 222,
  49, 226,
  49, 228,
  49, 230,
  49, 231,
  49, 232,
  49, 236,
  49, 239,
  49, 241,
  49, 242,
  49, 243,
  49, 246,
  49, 248,
  49, 250,
  49, 251,
  49, 253,
  49, 255,
  49, 260,
  49, 261,
  49, 262,
  49, 263,
  49, 265,
  49, 270,
  49, 271,
  49, 273,
  49, 274,
  49, 275,
  49, 276,
  49, 277,
  49, 279,
  49, 280,
  49, 281,
  49, 282,
  49, 285,
  49, 288,
  49, 292,
  49, 294,
  49, 295,
  49, 296,
  49, 299,
  50, 52,
  50, 53,
  50, 57,
  50, 61,
  50, 63,
  50, 65,
  50, 68,
  50, 69,
  50, 72,
  50, 74,
  50, 75,
  50, 76,
  50, 77,
  50, 79,
  50, 80,
  50, 81,
  50, 83,
  50, 85,
  50, 88,
  50, 91,
  50, 93,
  50, 94,
  50, 95,
  50, 101,
  50, 102,
  50, 103,
  50, 108,
  50, 109,
  50, 110,
  50, 111,
  50, 112,
  50, 113,
  50, 115,
  50, 116,
  50, 117,
  50, 119,
  50, 122,
  50, 126,
  50, 128,
  50, 130,
  50, 131,
  50, 132,
  50, 133,
  50, 134,
  50, 137,
  50, 145,
  50, 147,
  50, 148,
  50, 150,
  50, 154,
  50, 156,
  50, 159,
  50, 160,
  50, 162,
  50, 164,
  50, 167,
  50, 168,
  50, 169,
  50, 170,
  50, 171,
  50, 173,
  50, 174,
  50, 175,
  50, 178,
  50, 181,
  50, 183,
  50, 184,
  50, 188,
  50, 192,
  50, 194,
  50, 197,
  50, 202,
  50, 204,
  50, 205,
  50, 206,
  50, 208,
  50, 211,
  50, 215,
  50, 216,
  50, 217,
  50, 224,
  50, 225,
  50, 227,
  50, 228,
  50, 231,
  50, 234,
  50, 235,
  50, 242,
  50, 243,
  50, 244,
  50, 245,
  50, 246,
  50, 247,
  50, 252,
  50, 253,
  50, 254,
  50, 255,
  50, 256,
  50, 257,
  50, 258,
  50, 260,
  50, 262,
  50, 263,
  50, 265,
  50, 266,
  50, 267,
  50, 269,
  50, 271,
  50, 272,
  50, 273,
  50, 274,
  50, 275,
  50, 276,
  50, 277,
  50, 279,
  50, 282,
  50, 284,
  50, 285,
  50, 287,
  50, 290,
  50, 293,
  50, 295,
  50, 297,
  50, 298,
  50, 299,
  50, 300,
  51, 54,
  51, 56,
  51, 59,
  51, 60,
  51, 61,
  51, 62,
  51, 63,
  51, 65,
  51, 66,
  51, 72,
  51, 73,
  51, 74,
  51, 75,
  51, 77,
  51, 78,
  51, 80,
  51, 81,
  51, 82,
  51, 85,
  51, 86,
  51, 87,
  51, 89,
  51, 90,
  51, 91,
  51, 92,
  51, 94,
  51, 95,
  51, 96,
  51, 97,
  51, 98,
  51, 99,
  51, 103,
  51, 104,
  51, 108,
  51, 110,
  51, 113,
  51, 115,
  51, 120,
  51, 121,
  51, 123,
  51, 125,
  51, 132,
  51, 133,
  51, 135,
  51, 141,
  51, 144,
  51, 145,
  51, 147,
  51, 148,
  51, 149,
  51, 150,
  51, 151,
  51, 152,
  51, 156,
  51, 158,
  51, 160,
  51, 162,
  51, 164,
  51, 165,
  51, 170,
  51, 171,
  51, 174,
  51, 175,
  51, 177,
  51, 180,
  51, 183,
  51, 185,
  51, 186,
  51, 187,
  51, 188,
  51, 189,
  51, 190,
  51, 191,
  51, 192,
  51, 194,
  51, 197,
  51, 202,
  51, 204,
  51, 205,
  51, 206,
  51, 208,
  51, 210,
  51, 214,
  51, 218,
  51, 219,
  51, 222,
  51, 223,
  51, 225,
  51, 226,
  51, 230,
  51, 233,
  51, 236,
  51, 239,
  51, 244,
  51, 245,
  51, 246,
  51, 249,
  51, 251,
  51, 252,
  51, 253,
  51, 254,
  51, 256,
  51, 257,
  51, 259,
  51, 261,
  51, 264,
  51, 266,
  51, 271,
  51, 272,
  51, 273,
  51, 275,
  51, 281,
  51, 282,
  51, 286,
  51, 287,
  51, 289,
  51, 290,
  51, 291,
  51, 292,
  51, 294,
  51, 295,
  51, 296,
  51, 299,
  52, 55,
  52, 57,
  52, 61,
  52, 62,
  52, 63,
  52, 64,
  52, 68,
  52, 70,
  52, 71,
  52, 72,
  52, 74,
  52, 77,
  52, 78,
  52, 79,
  52, 80,
  52, 81,
  52, 86,
  52, 88,
  52, 89,
  52, 91,
  52, 92,
  52, 93,
  52, 97,
  52, 98,
  52, 99,
  52, 103,
  52, 104,
  52, 107,
  52, 108,
  52, 109,
  52, 110,
  52, 111,
  52, 114,
  52, 117,
  52, 119,
  52, 120,
  52, 121,
  52, 122,
  52, 124,
  52, 125,
  52, 126,
  52, 127,
  52, 128,
  52, 130,
  52, 131,
  52, 132,
  52, 133,
  52, 138,
  52, 142,
  52, 143,
  52, 144,
  52, 145,
  52, 147,
  52, 149,
  52, 150,
  52, 151,
  52, 154,
  52, 156,
  52, 157,
  52, 159,
  52, 162,
  52, 168,
  52, 171,
  52, 172,
  52, 173,
  52, 174,
  52, 175,
  52, 176,
  52, 179,
  52, 180,
  52, 181,
  52, 182,
  52, 184,
  52, 185,
  52, 188,
  52, 192,
  52, 195,
  52, 196,
  52, 197,
  52, 202,
  52, 203,
  52, 208,
  52, 211,
  52, 212,
  52, 217,
  52, 218,
  52, 222,
  52, 224,
  52, 226,
  52, 227,
  52, 228,
  52, 229,
  52, 231,
  52, 232,
  52, 233,
  52, 234,
  52, 235,
  52, 237,
  52, 240,
  52, 241,
  52, 243,
  52, 244,
  52, 245,
  52, 247,
  52, 248,
  52, 252,
  52, 255,
  52, 256,
  52, 258,
  52, 259,
  52, 261,
  52, 266,
  52, 267,
  52, 270,
  52, 274,
  52, 277,
  52, 278,
  52, 279,
  52, 280,
  52, 281,
  52, 283,
  52, 284,
  52, 285,
  52, 288,
  52, 289,
  52, 290,
  52, 293,
  52, 298,
  52, 299,
  52, 300,
  53, 54,
  53, 58,
  53, 61,
  53, 64,
  53, 65,
  53, 67,
  53, 68,
  53, 73,
  53, 74,
  53, 82,
  53, 83,
  53, 86,
  53, 88,
  53, 89,
  53, 96,
  53, 97,
  53, 101,
  53, 104,
  53, 108,
  53, 109,
  53, 112,
  53, 113,
  53, 114,
  53, 118,
  53, 119,
  53, 123,
  53, 124,
  53, 126,
  53, 129,
  53, 130,
  53, 131,
  53, 135,
  53, 139,
  53, 144,
  53, 146,
  53, 148,
  53, 150,
  53, 155,
  53, 162,
  53, 167,
  53, 171,
  53, 172,
  53, 175,
  53, 176,
  53, 181,
  53, 182,
  53, 183,
  53, 187,
  53, 189,
  53, 190,
  53, 192,
  53, 193,
  53, 197,
  53, 198,
  53, 200,
  53, 202,
  53, 203,
  53, 205,
  53, 207,
  53, 209,
  53, 210,
  53, 211,
  53, 213,
  53, 215,
  53, 218,
  53, 219,
  53, 221,
  53, 224,
  53, 226,
  53, 227,
  53, 228,
  53, 232,
  53, 233,
  53, 234,
  53, 235,
  53, 236,
  53, 240,
  53, 241,
  53, 244,
  53, 247,
  53, 248,
  53, 249,
  53, 255,
  53, 256,
  53, 259,
  53, 260,
  53, 262,
  53, 265,
  53, 266,
  53, 268,
  53, 270,
  53, 272,
  53, 273,
  53, 274,
  53, 275,
  53, 277,
  53, 278,
  53, 280,
  53, 285,
  53, 287,
  53, 290,
  53, 291,
  53, 294,
  53, 296,
  53, 298,
  53, 299,
  54, 55,
  54, 56,
  54, 57,
  54, 59,
  54, 64,
  54, 66,
  54, 69,
  54, 72,
  54, 76,
  54, 77,
  54, 78,
  54, 80,
  54, 82,
  54, 86,
  54, 88,
  54, 91,
  54, 92,
  54, 94,
  54, 96,
  54, 97,
  54, 98,
  54, 102,
  54, 105,
  54, 106,
  54, 108,
  54, 109,
  54, 111,
  54, 112,
  54, 113,
  54, 116,
  54, 119,
  54, 122,
  54, 124,
  54, 129,
  54, 130,
  54, 131,
  54, 132,
  54, 133,
  54, 139,
  54, 144,
  54, 145,
  54, 147,
  54, 150,
  54, 152,
  54, 153,
  54, 160,
  54, 161,
  54, 162,
  54, 163,
  54, 165,
  54, 166,
  54, 169,
  54, 174,
  54, 177,
  54, 181,
  54, 182,
  54, 186,
  54, 189,
  54, 190,
  54, 193,
  54, 194,
  54, 195,
  54, 197,
  54, 198,
  54, 199,
  54, 200,
  54, 201,
  54, 204,
  54, 206,
  54, 208,
  54, 209,
  54, 211,
  54, 212,
  54, 213,
  54, 217,
  54, 218,
  54, 220,
  54, 221,
  54, 222,
  54, 223,
  54, 225,
  54, 228,
  54, 229,
  54, 233,
  54, 234,
  54, 236,
  54, 237,
  54, 238,
  54, 239,
  54, 242,
  54, 243,
  54, 246,
  54, 249,
  54, 250,
  54, 252,
  54, 255,
  54, 257,
  54, 259,
  54, 261,
  54, 262,
  54, 263,
  54, 266,
  54, 267,
  54, 268,
  54, 269,
  54, 270,
  54, 273,
  54, 274,
  54, 281,
  54, 285,
  54, 287,
  54, 288,
  54, 290,
  54, 292,
  54, 293,
  54, 297,
  54, 298,
  54, 299,
  55, 56,
  55, 57,
  55, 58,
  55, 59,
  55, 61,
  55, 62,
  55, 63,
  55, 65,
  55, 67,
  55, 68,
  55, 70,
  55, 71,
  55, 73,
  55, 74,
  55, 76,
  55, 80,
  55, 81,
  55, 84,
  55, 85,
  55, 92,
  55, 98,
  55, 104,
  55, 106,
  55, 107,
  55, 109,
  55, 110,
  55, 111,
  55, 112,
  55, 114,
  55, 117,
  55, 118,
  55, 120,
  55, 121,
  55, 125,
  55, 127,
  55, 128,
  55, 131,
  55, 135,
  55, 136,
  55, 138,
  55, 140,
  55, 141,
  55, 142,
  55, 143,
  55, 144,
  55, 145,
  55, 147,
  55, 149,
  55, 150,
  55, 151,
  55, 153,
  55, 154,
  55, 158,
  55, 161,
  55, 162,
  55, 163,
  55, 164,
  55, 167,
  55, 168,
  55, 169,
  55, 174,
  55, 175,
  55, 176,
  55, 177,
  55, 178,
  55, 180,
  55, 184,
  55, 186,
  55, 189,
  55, 190,
  55, 191,
  55, 192,
  55, 193,
  55, 194,
  55, 196,
  55, 198,
  55, 200,
  55, 202,
  55, 204,
  55, 205,
  55, 206,
  55, 207,
  55, 214,
  55, 215,
  55, 216,
  55, 217,
  55, 218,
  55, 219,
  55, 220,
  55, 221,
  55, 222,
  55, 228,
  55, 229,
  55, 230,
  55, 231,
  55, 234,
  55, 236,
  55, 238,
  55, 240,
  55, 242,
  55, 244,
  55, 247,
  55, 249,
  55, 250,
  55, 252,
  55, 254,
  55, 256,
  55, 257,
  55, 258,
  55, 259,
  55, 260,
  55, 261,
  55, 263,
  55, 264,
  55, 265,
  55, 266,
  55, 269,
  55, 270,
  55, 271,
  55, 273,
  55, 274,
  55, 275,
  55, 277,
  55, 285,
  55, 286,
  55, 287,
  55, 288,
  55, 290,
  55, 292,
  55, 297,
  55, 299,
  56, 61,
  56, 62,
  56, 63,
  56, 64,
  56, 65,
  56, 66,
  56, 67,
  56, 69,
  56, 70,
  56, 71,
  56, 72,
  56, 73,
  56, 76,
  56, 79,
  56, 83,
  56, 84,
  56, 86,
  56, 91,
  56, 92,
  56, 93,
  56, 94,
  56, 98,
  56, 99,
  56, 102,
  56, 105,
  56, 106,
  56, 110,
  56, 111,
  56, 112,
  56, 113,
  56, 114,
  56, 116,
  56, 117,
  56, 118,
  56, 119,
  56, 122,
  56, 124,
  56, 125,
  56, 126,
  56, 127,
  56, 128,
  56, 129,
  56, 131,
  56, 133,
  56, 134,
  56, 137,
  56, 140,
  56, 141,
  56, 142,
  56, 148,
  56, 151,
  56, 155,
  56, 159,
  56, 160,
  56, 161,
  56, 162,
  56, 163,
  56, 166,
  56, 167,
  56, 168,
  56, 169,
  56, 172,
  56, 173,
  56, 177,
  56, 180,
  56, 183,
  56, 187,
  56, 193,
  56, 194,
  56, 199,
  56, 201,
  56, 208,
  56, 212,
  56, 213,
  56, 214,
  56, 221,
  56, 223,
  56, 232,
  56, 233,
  56, 234,
  56, 237,
  56, 238,
  56, 239,
  56, 242,
  56, 244,
  56, 245,
  56, 246,
  56, 248,
  56, 254,
  56, 255,
  56, 256,
  56, 257,
  56, 259,
  56, 260,
  56, 261,
  56, 264,
  56, 267,
  56, 270,
  56, 274,
  56, 275,
  56, 278,
  56, 279,
  56, 280,
  56, 282,
  56, 283,
  56, 285,
  56, 287,
  56, 289,
  56, 290,
  56, 291,
  56, 292,
  56, 294,
  56, 295,
  56, 296,
  56, 298,
  56, 300,
  57, 59,
  57, 62,
  57, 63,
  57, 64,
  57, 77,
  57, 78,
  57, 80,
  57, 81,
  57, 86,
  57, 89,
  57, 94,
  57, 96,
  57, 99,
  57, 102,
  57, 103,
  57, 104,
  57, 106,
  57, 108,
  57, 110,
  57, 111,
  57, 115,
  57, 116,
  57, 117,
  57, 118,
  57, 121,
  57, 122,
  57, 123,
  57, 124,
  57, 125,
  57, 126,
  57, 128,
  57, 129,
  57, 130,
  57, 131,
  57, 135,
  57, 136,
  57, 138,
  57, 139,
  57, 140,
  57, 144,
  57, 145,
  57, 146,
  57, 150,
  57, 153,
  57, 154,
  57, 158,
  57, 159,
  57, 160,
  57, 161,
  57, 162,
  57, 165,
  57, 166,
  57, 167,
  57, 169,
  57, 171,
  57, 173,
  57, 175,
  57, 177,
  57, 179,
  57, 182,
  57, 183,
  57, 186,
  57, 187,
  57, 189,
  57, 190,
  57, 193,
  57, 194,
  57, 195,
  57, 196,
  57, 199,
  57, 201,
  57, 209,
  57, 213,
  57, 214,
  57, 216,
  57, 217,
  57, 218,
  57, 221,
  57, 223,
  57, 224,
  57, 227,
  57, 228,
  57, 229,
  57, 230,
  57, 231,
  57, 232,
  57, 234,
  57, 235,
  57, 236,
  57, 237,
  57, 238,
  57, 240,
  57, 241,
  57, 242,
  57, 244,
  57, 245,
  57, 248,
  57, 250,
  57, 251,
  57, 252,
  57, 253,
  57, 257,
  57, 258,
  57, 259,
  57, 260,
  57, 261,
  57, 262,
  57, 264,
  57, 266,
  57, 268,
  57, 269,
  57, 271,
  57, 273,
  57, 274,
  57, 276,
  57, 277,
  57, 278,
  57, 280,
  57, 282,
  57, 283,
  57, 284,
  57, 285,
  57, 286,
  57, 290,
  57, 291,
  57, 292,
  57, 294,
  57, 295,
  57, 299,
  58, 61,
  58, 62,
  58, 68,
  58, 69,
  58, 70,
  58, 71,
  58, 73,
  58, 74,
  58, 78,
  58, 79,
  58, 80,
  58, 81,
  58, 83,
  58, 84,
  58, 86,
  58, 88,
  58, 89,
  58, 90,
  58, 91,
  58, 93,
  58, 94,
  58, 99,
  58, 100,
  58, 101,
  58, 102,
  58, 105,
  58, 106,
  58, 107,
  58, 109,
  58, 110,
  58, 111,
  58, 113,
  58, 114,
  58, 116,
  58, 118,
  58, 119,
  58, 121,
  58, 122,
  58, 124,
  58, 125,
  58, 126,
  58, 127,
  58, 128,
  58, 129,
  58, 130,
  58, 132,
  58, 133,
  58, 135,
  58, 137,
  58, 139,
  58, 146,
  58, 147,
  58, 148,
  58, 149,
  58, 151,
  58, 152,
  58, 153,
  58, 154,
  58, 158,
  58, 160,
  58, 161,
  58, 162,
  58, 163,
  58, 164,
  58, 166,
  58, 167,
  58, 172,
  58, 177,
  58, 178,
  58, 179,
  58, 180,
  58, 183,
  58, 184,
  58, 193,
  58, 194,
  58, 199,
  58, 201,
  58, 202,
  58, 204,
  58, 209,
  58, 210,
  58, 211,
  58, 214,
  58, 215,
  58, 216,
  58, 218,
  58, 219,
  58, 221,
  58, 222,
  58, 224,
  58, 225,
  58, 229,
  58, 230,
  58, 234,
  58, 235,
  58, 236,
  58, 238,
  58, 239,
  58, 240,
  58, 241,
  58, 243,
  58, 245,
  58, 247,
  58, 249,
  58, 250,
  58, 251,
  58, 252,
  58, 253,
  58, 254,
  58, 255,
  58, 258,
  58, 260,
  58, 261,
  58, 263,
  58, 265,
  58, 267,
  58, 271,
  58, 277,
  58, 279,
  58, 280,
  58, 284,
  58, 285,
  58, 286,
  58, 287,
  58, 288,
  58, 289,
  58, 290,
  58, 295,
  58, 300,
  59, 62,
  59, 64,
  59, 65,
  59, 67,
  59, 69,
  59, 70,
  59, 73,
  59, 74,
  59, 77,
  59, 81,
  59, 84,
  59, 87,
  59, 89,
  59, 90,
  59, 91,
  59, 93,
  59, 94,
  59, 97,
  59, 99,
  59, 100,
  59, 102,
  59, 103,
  59, 104,
  59, 105,
  59, 106,
  59, 110,
  59, 111,
  59, 113,
  59, 115,
  59, 118,
  59, 119,
  59, 120,
  59, 122,
  59, 123,
  59, 128,
  59, 129,
  59, 130,
  59, 133,
  59, 136,
  59, 141,
  59, 143,
  59, 144,
  59, 145,
  59, 147,
  59, 149,
  59, 151,
  59, 152,
  59, 160,
  59, 161,
  59, 162,
  59, 166,
  59, 168,
  59, 173,
  59, 174,
  59, 177,
  59, 179,
  59, 180,
  59, 183,
  59, 186,
  59, 189,
  59, 191,
  59, 199,
  59, 202,
  59, 205,
  59, 206,
  59, 210,
  59, 212,
  59, 213,
  59, 215,
  59, 220,
  59, 221,
  59, 222,
  59, 225,
  59, 226,
  59, 229,
  59, 230,
  59, 231,
  59, 232,
  59, 233,
  59, 236,
  59, 239,
  59, 243,
  59, 244,
  59, 247,
  59, 248,
  59, 249,
  59, 251,
  59, 252,
  59, 254,
  59, 256,
  59, 257,
  59, 260,
  59, 262,
  59, 267,
  59, 268,
  59, 271,
  59, 272,
  59, 275,
  59, 280,
  59, 281,
  59, 282,
  59, 289,
  59, 290,
  59, 291,
  59, 294,
  59, 295,
  59, 296,
  59, 297,
  59, 300,
  60, 61,
  60, 62,
  60, 63,
  60, 65,
  60, 67,
  60, 68,
  60, 69,
  60, 71,
  60, 72,
  60, 79,
  60, 80,
  60, 82,
  60, 83,
  60, 86,
  60, 87,
  60, 88,
  60, 90,
  60, 92,
  60, 93,
  60, 94,
  60, 95,
  60, 97,
  60, 99,
  60, 100,
  60, 101,
  60, 104,
  60, 106,
  60, 107,
  60, 108,
  60, 109,
  60, 111,
  60, 114,
  60, 115,
  60, 116,
  60, 118,
  60, 120,
  60, 121,
  60, 123,
  60, 125,
  60, 127,
  60, 132,
  60, 133,
  60, 135,
  60, 136,
  60, 137,
  60, 142,
  60, 145,
  60, 146,
  60, 148,
  60, 149,
  60, 152,
  60, 153,
  60, 156,
  60, 158,
  60, 159,
  60, 160,
  60, 161,
  60, 162,
  60, 163,
  60, 170,
  60, 171,
  60, 173,
  60, 174,
  60, 175,
  60, 176,
  60, 177,
  60, 178,
  60, 180,
  60, 181,
  60, 182,
  60, 186,
  60, 188,
  60, 189,
  60, 191,
  60, 193,
  60, 194,
  60, 195,
  60, 197,
  60, 198,
  60, 200,
  60, 201,
  60, 202,
  60, 203,
  60, 204,
  60, 205,
  60, 207,
  60, 208,
  60, 210,
  60, 211,
  60, 212,
  60, 213,
  60, 215,
  60, 216,
  60, 217,
  60, 222,
  60, 224,
  60, 226,
  60, 227,
  60, 228,
  60, 230,
  60, 231,
  60, 232,
  60, 236,
  60, 237,
  60, 239,
  60, 242,
  60, 245,
  60, 247,
  60, 248,
  60, 252,
  60, 254,
  60, 255,
  60, 259,
  60, 261,
  60, 262,
  60, 270,
  60, 274,
  60, 276,
  60, 277,
  60, 278,
  60, 283,
  60, 284,
  60, 285,
  60, 290,
  60, 291,
  60, 292,
  60, 295,
  60, 296,
  60, 298,
  60, 299,
  61, 65,
  61, 66,
  61, 67,
  61, 68,
  61, 69,
  61, 70,
  61, 71,
  61, 73,
  61, 75,
  61, 76,
  61, 78,
  61, 79,
  61, 81,
  61, 83,
  61, 84,
  61, 85,
  61, 86,
  61, 89,
  61, 90,
  61, 93,
  61, 94,
  61, 95,
  61, 97,
  61, 100,
  61, 105,
  61, 106,
  61, 107,
  61, 108,
  61, 114,
  61, 115,
  61, 116,
  61, 117,
  61, 118,
  61, 119,
  61, 120,
  61, 124,
  61, 126,
  61, 128,
  61, 129,
  61, 130,
  61, 134,
  61, 135,
  61, 137,
  61, 138,
  61, 139,
  61, 140,
  61, 142,
  61, 143,
  61, 146,
  61, 148,
  61, 150,
  61, 152,
  61, 156,
  61, 158,
  61, 162,
  61, 163,
  61, 164,
  61, 165,
  61, 167,
  61, 169,
  61, 170,
  61, 173,
  61, 176,
  61, 177,
  61, 178,
  61, 179,
  61, 182,
  61, 183,
  61, 186,
  61, 190,
  61, 193,
  61, 195,
  61, 197,
  61, 199,
  61, 200,
  61, 202,
  61, 206,
  61, 208,
  61, 210,
  61, 211,
  61, 212,
  61, 214,
  61, 215,
  61, 216,
  61, 218,
  61, 220,
  61, 224,
  61, 226,
  61, 228,
  61, 232,
  61, 234,
  61, 239,
  61, 242,
  61, 244,
  61, 246,
  61, 248,
  61, 250,
  61, 251,
  61, 252,
  61, 255,
  61, 260,
  61, 262,
  61, 266,
  61, 267,
  61, 270,
  61, 272,
  61, 275,
  61, 280,
  61, 281,
  61, 282,
  61, 286,
  61, 288,
  61, 291,
  61, 293,
  61, 295,
  61, 297,
  61, 300,
  62, 69,
  62, 72,
  62, 73,
  62, 79,
  62, 80,
  62, 83,
  62, 86,
  62, 87,
  62, 88,
  62, 89,
  62, 92,
  62, 93,
  62, 94,
  62, 95,
  62, 97,
  62, 99,
  62, 100,
  62, 102,
  62, 103,
  62, 105,
  62, 106,
  62, 107,
  62, 108,
  62, 110,
  62, 111,
  62, 115,
  62, 117,
  62, 118,
  62, 120,
  62, 123,
  62, 124,
  62, 128,
  62, 131,
  62, 132,
  62, 133,
  62, 134,
  62, 135,
  62, 137,
  62, 142,
  62, 143,
  62, 144,
  62, 145,
  62, 148,
  62, 149,
  62, 152,
  62, 153,
  62, 155,
  62, 159,
  62, 162,
  62, 164,
  62, 165,
  62, 166,
  62, 167,
  62, 168,
  62, 171,
  62, 173,
  62, 175,
  62, 177,
  62, 178,
  62, 184,
  62, 186,
  62, 187,
  62, 189,
  62, 190,
  62, 192,
  62, 194,
  62, 195,
  62, 196,
  62, 197,
  62, 199,
  62, 200,
  62, 203,
  62, 204,
  62, 206,
  62, 208,
  62, 209,
  62, 212,
  62, 213,
  62, 214,
  62, 216,
  62, 217,
  62, 218,
  62, 219,
  62, 220,
  62, 224,
  62, 225,
  62, 226,
  62, 228,
  62, 229,
  62, 233,
  62, 237,
  62, 238,
  62, 239,
  62, 242,
  62, 243,
  62, 246,
  62, 248,
  62, 249,
  62, 253,
  62, 256,
  62, 257,
  62, 260,
  62, 264,
  62, 266,
  62, 267,
  62, 268,
  62, 272,
  62, 273,
  62, 275,
  62, 278,
  62, 281,
  62, 285,
  62, 286,
  62, 287,
  62, 289,
  62, 291,
  62, 293,
  62, 295,
  62, 297,
  63, 66,
  63, 67,
  63, 71,
  63, 72,
  63, 74,
  63, 75,
  63, 78,
  63, 81,
  63, 82,
  63, 84,
  63, 85,
  63, 92,
  63, 94,
  63, 97,
  63, 101,
  63, 102,
  63, 103,
  63, 105,
  63, 106,
  63, 107,
  63, 108,
  63, 109,
  63, 110,
  63, 111,
  63, 113,
  63, 120,
  63, 121,
  63, 122,
  63, 127,
  63, 128,
  63, 130,
  63, 133,
  63, 138,
  63, 139,
  63, 142,
  63, 143,
  63, 144,
  63, 146,
  63, 152,
  63, 153,
  63, 154,
  63, 156,
  63, 157,
  63, 158,
  63, 164,
  63, 165,
  63, 166,
  63, 169,
  63, 170,
  63, 171,
  63, 174,
  63, 177,
  63, 178,
  63, 183,
  63, 184,
  63, 186,
  63, 187,
  63, 188,
  63, 190,
  63, 191,
  63, 195,
  63, 197,
  63, 199,
  63, 201,
  63, 202,
  63, 204,
  63, 206,
  63, 208,
  63, 213,
  63, 217,
  63, 218,
  63, 219,
  63, 224,
  63, 225,
  63, 226,
  63, 229,
  63, 234,
  63, 235,
  63, 238,
  63, 239,
  63, 243,
  63, 246,
  63, 248,
  63, 252,
  63, 253,
  63, 254,
  63, 256,
  63, 258,
  63, 259,
  63, 260,
  63, 261,
  63, 264,
  63, 266,
  63, 269,
  63, 272,
  63, 273,
  63, 275,
  63, 279,
  63, 281,
  63, 283,
  63, 284,
  63, 285,
  63, 286,
  63, 287,
  63, 288,
  63, 289,
  63, 290,
  63, 293,
  63, 295,
  63, 297,
  63, 298,
  63, 299,
  63, 300,
  64, 66,
  64, 69,
  64, 72,
  64, 73,
  64, 74,
  64, 76,
  64, 79,
  64, 80,
  64, 81,
  64, 82,
  64, 84,
  64, 85,
  64, 97,
  64, 98,
  64, 100,
  64, 101,
  64, 103,
  64, 105,
  64, 106,
  64, 107,
  64, 108,
  64, 109,
  64, 110,
  64, 112,
  64, 116,
  64, 117,
  64, 118,
  64, 119,
  64, 120,
  64, 123,
  64, 125,
  64, 126,
  64, 127,
  64, 128,
  64, 129,
  64, 130,
  64, 131,
  64, 133,
  64, 134,
  64, 135,
  64, 141,
  64, 150,
  64, 154,
  64, 157,
  64, 163,
  64, 164,
  64, 166,
  64, 167,
  64, 169,
  64, 170,
  64, 174,
  64, 175,
  64, 176,
  64, 180,
  64, 184,
  64, 185,
  64, 187,
  64, 189,
  64, 191,
  64, 194,
  64, 196,
  64, 197,
  64, 198,
  64, 200,
  64, 204,
  64, 205,
  64, 208,
  64, 213,
  64, 214,
  64, 215,
  64, 218,
  64, 219,
  64, 220,
  64, 222,
  64, 224,
  64, 226,
  64, 227,
  64, 228,
  64, 230,
  64, 231,
  64, 233,
  64, 237,
  64, 238,
  64, 239,
  64, 240,
  64, 242,
  64, 247,
  64, 249,
  64, 252,
  64, 253,
  64, 256,
  64, 257,
  64, 258,
  64, 260,
  64, 261,
  64, 265,
  64, 266,
  64, 269,
  64, 270,
  64, 272,
  64, 277,
  64, 279,
  64, 280,
  64, 282,
  64, 283,
  64, 287,
  64, 289,
  64, 290,
  64, 291,
  64, 295,
  64, 297,
  64, 299,
  65, 67,
  65, 71,
  65, 76,
  65, 77,
  65, 79,
  65, 80,
  65, 83,
  65, 84,
  65, 85,
  65, 89,
  65, 94,
  65, 96,
  65, 97,
  65, 99,
  65, 102,
  65, 103,
  65, 107,
  65, 110,
  65, 111,
  65, 114,
  65, 116,
  65, 117,
  65, 118,
  65, 124,
  65, 125,
  65, 127,
  65, 128,
  65, 130,
  65, 131,
  65, 132,
  65, 133,
  65, 134,
  65, 135,
  65, 137,
  65, 138,
  65, 145,
  65, 147,
  65, 153,
  65, 154,
  65, 157,
  65, 158,
  65, 162,
  65, 164,
  65, 168,
  65, 169,
  65, 172,
  65, 176,
  65, 177,
  65, 181,
  65, 182,
  65, 188,
  65, 191,
  65, 196,
  65, 201,
  65, 202,
  65, 204,
  65, 205,
  65, 206,
  65, 207,
  65, 208,
  65, 211,
  65, 212,
  65, 213,
  65, 214,
  65, 216,
  65, 217,
  65, 221,
  65, 223,
  65, 226,
  65, 227,
  65, 230,
  65, 234,
  65, 235,
  65, 238,
  65, 241,
  65, 243,
  65, 246,
  65, 248,
  65, 251,
  65, 252,
  65, 253,
  65, 256,
  65, 257,
  65, 261,
  65, 264,
  65, 267,
  65, 269,
  65, 270,
  65, 272,
  65, 273,
  65, 274,
  65, 275,
  65, 277,
  65, 279,
  65, 281,
  65, 283,
  65, 284,
  65, 286,
  65, 287,
  65, 289,
  65, 290,
  65, 292,
  65, 294,
  65, 298,
  66, 68,
  66, 70,
  66, 71,
  66, 72,
  66, 74,
  66, 75,
  66, 78,
  66, 79,
  66, 80,
  66, 82,
  66, 84,
  66, 87,
  66, 88,
  66, 89,
  66, 90,
  66, 94,
  66, 96,
  66, 97,
  66, 98,
  66, 100,
  66, 101,
  66, 103,
  66, 104,
  66, 105,
  66, 106,
  66, 107,
  66, 113,
  66, 118,
  66, 120,
  66, 123,
  66, 124,
  66, 129,
  66, 131,
  66, 132,
  66, 133,
  66, 134,
  66, 138,
  66, 139,
  66, 140,
  66, 143,
  66, 144,
  66, 148,
  66, 149,
  66, 150,
  66, 154,
  66, 162,
  66, 165,
  66, 166,
  66, 168,
  66, 169,
  66, 170,
  66, 171,
  66, 172,
  66, 178,
  66, 179,
  66, 180,
  66, 182,
  66, 183,
  66, 184,
  66, 185,
  66, 186,
  66, 187,
  66, 188,
  66, 189,
  66, 191,
  66, 192,
  66, 193,
  66, 196,
  66, 199,
  66, 201,
  66, 202,
  66, 203,
  66, 206,
  66, 207,
  66, 208,
  66, 209,
  66, 210,
  66, 211,
  66, 214,
  66, 216,
  66, 217,
  66, 222,
  66, 223,
  66, 224,
  66, 225,
  66, 226,
  66, 227,
  66, 229,
  66, 230,
  66, 231,
  66, 233,
  66, 234,
  66, 235,
  66, 236,
  66, 237,
  66, 240,
  66, 241,
  66, 244,
  66, 245,
  66, 246,
  66, 248,
  66, 249,
  66, 250,
  66, 251,
  66, 252,
  66, 253,
  66, 258,
  66, 259,
  66, 260,
  66, 262,
  66, 263,
  66, 264,
  66, 267,
  66, 272,
  66, 274,
  66, 277,
  66, 279,
  66, 280,
  66, 281,
  66, 282,
  66, 284,
  66, 285,
  66, 289,
  66, 290,
  66, 291,
  66, 293,
  66, 294,
  66, 295,
  66, 296,
  66, 299,
  66, 300,
  67, 69,
  67, 77,
  67, 78,
  67, 80,
  67, 81,
  67, 82,
  67, 85,
  67, 89,
  67, 92,
  67, 93,
  67, 96,
  67, 97,
  67, 99,
  67, 100,
  67, 101,
  67, 102,
  67, 103,
  67, 106,
  67, 107,
  67, 110,
  67, 112,
  67, 116,
  67, 117,
  67, 119,
  67, 120,
  67, 122,
  67, 124,
  67, 125,
  67, 126,
  67, 127,
  67, 128,
  67, 130,
  67, 131,
  67, 132,
  67, 135,
  67, 136,
  67, 137,
  67, 138,
  67, 141,
  67, 142,
  67, 143,
  67, 144,
  67, 146,
  67, 147,
  67, 149,
  67, 150,
  67, 151,
  67, 154,
  67, 155,
  67, 156,
  67, 158,
  67, 160,
  67, 163,
  67, 165,
  67, 167,
  67, 169,
  67, 173,
  67, 174,
  67, 175,
  67, 176,
  67, 178,
  67, 180,
  67, 181,
  67, 182,
  67, 183,
  67, 185,
  67, 186,
  67, 188,
  67, 191,
  67, 193,
  67, 195,
  67, 197,
  67, 198,
  67, 199,
  67, 200,
  67, 201,
  67, 202,
  67, 203,
  67, 206,
  67, 209,
  67, 210,
  67, 211,
  67, 214,
  67, 216,
  67, 217,
  67, 219,
  67, 221,
  67, 224,
  67, 226,
  67, 230,
  67, 232,
  67, 233,
  67, 234,
  67, 236,
  67, 238,
  67, 239,
  67, 241,
  67, 243,
  67, 245,
  67, 246,
  67, 247,
  67, 248,
  67, 250,
  67, 255,
  67, 257,
  67, 260,
  67, 264,
  67, 269,
  67, 270,
  67, 271,
  67, 272,
  67, 273,
  67, 274,
  67, 275,
  67, 280,
  67, 281,
  67, 282,
  67, 284,
  67, 288,
  67, 290,
  67, 291,
  67, 292,
  67, 293,
  67, 294,
  67, 298,
  67, 300,
  68, 69,
  68, 71,
  68, 72,
  68, 73,
  68, 74,
  68, 75,
  68, 78,
  68, 79,
  68, 80,
  68, 84,
  68, 85,
  68, 87,
  68, 91,
  68, 97,
  68, 99,
  68, 101,
  68, 107,
  68, 109,
  68, 110,
  68, 111,
  68, 114,
  68, 116,
  68, 118,
  68, 119,
  68, 120,
  68, 121,
  68, 122,
  68, 123,
  68, 125,
  68, 126,
  68, 129,
  68, 130,
  68, 131,
  68, 135,
  68, 139,
  68, 141,
  68, 148,
  68, 149,
  68, 150,
  68, 152,
  68, 153,
  68, 156,
  68, 157,
  68, 158,
  68, 164,
  68, 165,
  68, 166,
  68, 173,
  68, 176,
  68, 177,
  68, 179,
  68, 186,
  68, 187,
  68, 189,
  68, 190,
  68, 191,
  68, 192,
  68, 197,
  68, 200,
  68, 203,
  68, 205,
  68, 206,
  68, 208,
  68, 209,
  68, 210,
  68, 212,
  68, 213,
  68, 218,
  68, 219,
  68, 222,
  68, 224,
  68, 228,
  68, 230,
  68, 235,
  68, 237,
  68, 238,
  68, 241,
  68, 242,
  68, 243,
  68, 244,
  68, 249,
  68, 251,
  68, 252,
  68, 253,
  68, 255,
  68, 257,
  68, 260,
  68, 261,
  68, 264,
  68, 266,
  68, 267,
  68, 269,
  68, 270,
  68, 271,
  68, 272,
  68, 273,
  68, 276,
  68, 278,
  68, 279,
  68, 280,
  68, 281,
  68, 284,
  68, 285,
  68, 286,
  68, 288,
  68, 289,
  68, 293,
  68, 294,
  68, 295,
  68, 296,
  68, 297,
  69, 72,
  69, 74,
  69, 78,
  69, 79,
  69, 80,
  69, 83,
  69, 84,
  69, 85,
  69, 87,
  69, 88,
  69, 90,
  69, 91,
  69, 93,
  69, 94,
  69, 95,
  69, 99,
  69, 101,
  69, 102,
  69, 103,
  69, 105,
  69, 107,
  69, 108,
  69, 109,
  69, 111,
  69, 114,
  69, 115,
  69, 116,
  69, 117,
  69, 123,
  69, 124,
  69, 125,
  69, 126,
  69, 129,
  69, 130,
  69, 131,
  69, 132,
  69, 133,
  69, 134,
  69, 135,
  69, 136,
  69, 137,
  69, 139,
  69, 141,
  69, 142,
  69, 143,
  69, 144,
  69, 145,
  69, 151,
  69, 152,
  69, 156,
  69, 158,
  69, 159,
  69, 161,
  69, 164,
  69, 165,
  69, 168,
  69, 170,
  69, 171,
  69, 177,
  69, 178,
  69, 180,
  69, 183,
  69, 184,
  69, 185,
  69, 186,
  69, 187,
  69, 188,
  69, 189,
  69, 191,
  69, 192,
  69, 194,
  69, 196,
  69, 197,
  69, 199,
  69, 200,
  69, 201,
  69, 202,
  69, 205,
  69, 206,
  69, 207,
  69, 208,
  69, 209,
  69, 210,
  69, 213,
  69, 215,
  69, 216,
  69, 220,
  69, 221,
  69, 225,
  69, 227,
  69, 228,
  69, 229,
  69, 231,
  69, 232,
  69, 234,
  69, 238,
  69, 243,
  69, 245,
  69, 248,
  69, 253,
  69, 254,
  69, 256,
  69, 257,
  69, 258,
  69, 259,
  69, 261,
  69, 265,
  69, 266,
  69, 267,
  69, 269,
  69, 270,
  69, 272,
  69, 274,
  69, 275,
  69, 276,
  69, 281,
  69, 283,
  69, 284,
  69, 285,
  69, 287,
  69, 288,
  69, 295,
  69, 298,
  69, 299,
  70, 71,
  70, 72,
  70, 74,
  70, 75,
  70, 77,
  70, 78,
  70, 79,
  70, 83,
  70, 84,
  70, 87,
  70, 88,
  70, 90,
  70, 91,
  70, 92,
  70, 93,
  70, 94,
  70, 99,
  70, 103,
  70, 104,
  70, 110,
  70, 111,
  70, 114,
  70, 116,
  70, 118,
  70, 119,
  70, 122,
  70, 128,
  70, 129,
  70, 130,
  70, 132,
  70, 133,
  70, 134,
  70, 135,
  70, 137,
  70, 139,
  70, 140,
  70, 141,
  70, 142,
  70, 143,
  70, 145,
  70, 147,
  70, 148,
  70, 150,
  70, 151,
  70, 152,
  70, 154,
  70, 158,
  70, 159,
  70, 163,
  70, 165,
  70, 166,
  70, 168,
  70, 169,
  70, 170,
  70, 174,
  70, 176,
  70, 181,
  70, 182,
  70, 183,
  70, 187,
  70, 189,
  70, 192,
  70, 195,
  70, 196,
  70, 197,
  70, 198,
  70, 203,
  70, 204,
  70, 205,
  70, 209,
  70, 212,
  70, 214,
  70, 215,
  70, 217,
  70, 218,
  70, 222,
  70, 223,
  70, 227,
  70, 230,
  70, 232,
  70, 233,
  70, 234,
  70, 238,
  70, 239,
  70, 241,
  70, 242,
  70, 245,
  70, 246,
  70, 247,
  70, 248,
  70, 249,
  70, 250,
  70, 251,
  70, 253,
  70, 254,
  70, 256,
  70, 258,
  70, 260,
  70, 261,
  70, 262,
  70, 264,
  70, 265,
  70, 266,
  70, 270,
  70, 271,
  70, 272,
  70, 273,
  70, 274,
  70, 276,
  70, 277,
  70, 278,
  70, 283,
  70, 285,
  70, 288,
  70, 289,
  70, 290,
  70, 292,
  70, 298,
  70, 300,
  71, 72,
  71, 74,
  71, 75,
  71, 76,
  71, 78,
  71, 79,
  71, 80,
  71, 81,
  71, 82,
  71, 84,
  71, 87,
  71, 89,
  71, 90,
  71, 91,
  71, 94,
  71, 95,
  71, 96,
  71, 99,
  71, 103,
  71, 106,
  71, 107,
  71, 108,
  71, 109,
  71, 111,
  71, 112,
  71, 113,
  71, 114,
  71, 118,
  71, 121,
  71, 122,
  71, 126,
  71, 128,
  71, 129,
  71, 131,
  71, 132,
  71, 133,
  71, 134,
  71, 137,
  71, 138,
  71, 140,
  71, 143,
  71, 149,
  71, 153,
  71, 154,
  71, 155,
  71, 156,
  71, 162,
  71, 164,
  71, 166,
  71, 170,
  71, 172,
  71, 173,
  71, 174,
  71, 178,
  71, 179,
  71, 181,
  71, 182,
  71, 183,
  71, 186,
  71, 187,
  71, 188,
  71, 189,
  71, 191,
  71, 196,
  71, 197,
  71, 203,
  71, 204,
  71, 206,
  71, 208,
  71, 211,
  71, 212,
  71, 213,
  71, 214,
  71, 215,
  71, 217,
  71, 219,
  71, 226,
  71, 227,
  71, 228,
  71, 229,
  71, 234,
  71, 237,
  71, 239,
  71, 240,
  71, 242,
  71, 243,
  71, 244,
  71, 245,
  71, 248,
  71, 250,
  71, 252,
  71, 253,
  71, 256,
  71, 259,
  71, 260,
  71, 261,
  71, 262,
  71, 263,
  71, 267,
  71, 273,
  71, 274,
  71, 276,
  71, 277,
  71, 279,
  71, 281,
  71, 283,
  71, 285,
  71, 286,
  71, 287,
  71, 289,
  71, 290,
  71, 292,
  71, 296,
  71, 297,
  71, 299,
  72, 74,
  72, 76,
  72, 79,
  72, 80,
  72, 81,
  72, 82,
  72, 88,
  72, 91,
  72, 96,
  72, 97,
  72, 99,
  72, 103,
  72, 104,
  72, 106,
  72, 107,
  72, 108,
  72, 111,
  72, 112,
  72, 113,
  72, 114,
  72, 115,
  72, 117,
  72, 118,
  72, 121,
  72, 122,
  72, 126,
  72, 127,
  72, 131,
  72, 133,
  72, 134,
  72, 135,
  72, 138,
  72, 141,
  72, 142,
  72, 144,
  72, 145,
  72, 147,
  72, 148,
  72, 150,
  72, 152,
  72, 153,
  72, 154,
  72, 155,
  72, 156,
  72, 160,
  72, 162,
  72, 163,
  72, 170,
  72, 171,
  72, 173,
  72, 175,
  72, 176,
  72, 178,
  72, 179,
  72, 181,
  72, 184,
  72, 185,
  72, 186,
  72, 188,
  72, 189,
  72, 190,
  72, 192,
  72, 193,
  72, 194,
  72, 196,
  72, 197,
  72, 203,
  72, 204,
  72, 205,
  72, 206,
  72, 207,
  72, 209,
  72, 218,
  72, 219,
  72, 220,
  72, 221,
  72, 223,
  72, 224,
  72, 225,
  72, 227,
  72, 229,
  72, 230,
  72, 232,
  72, 237,
  72, 238,
  72, 241,
  72, 242,
  72, 243,
  72, 244,
  72, 245,
  72, 246,
  72, 248,
  72, 250,
  72, 251,
  72, 254,
  72, 255,
  72, 257,
  72, 261,
  72, 263,
  72, 267,
  72, 269,
  72, 270,
  72, 271,
  72, 275,
  72, 276,
  72, 277,
  72, 280,
  72, 283,
  72, 286,
  72, 287,
  72, 291,
  72, 292,
  72, 293,
  72, 295,
  72, 296,
  72, 297,
  72, 300,
  73, 75,
  73, 76,
  73, 77,
  73, 78,
  73, 79,
  73, 80,
  73, 81,
  73, 82,
  73, 83,
  73, 85,
  73, 86,
  73, 91,
  73, 92,
  73, 93,
  73, 94,
  73, 95,
  73, 98,
  73, 100,
  73, 101,
  73, 104,
  73, 108,
  73, 110,
  73, 112,
  73, 116,
  73, 119,
  73, 120,
  73, 121,
  73, 128,
  73, 131,
  73, 132,
  73, 133,
  73, 135,
  73, 140,
  73, 143,
  73, 146,
  73, 147,
  73, 148,
  73, 152,
  73, 157,
  73, 161,
  73, 162,
  73, 163,
  73, 168,
  73, 170,
  73, 171,
  73, 174,
  73, 175,
  73, 178,
  73, 181,
  73, 182,
  73, 184,
  73, 185,
  73, 192,
  73, 193,
  73, 195,
  73, 196,
  73, 199,
  73, 201,
  73, 202,
  73, 204,
  73, 205,
  73, 208,
  73, 210,
  73, 213,
  73, 215,
  73, 220,
  73, 223,
  73, 224,
  73, 225,
  73, 226,
  73, 229,
  73, 234,
  73, 237,
  73, 239,
  73, 242,
  73, 243,
  73, 244,
  73, 248,
  73, 249,
  73, 250,
  73, 252,
  73, 253,
  73, 255,
  73, 256,
  73, 260,
  73, 262,
  73, 263,
  73, 264,
  73, 265,
  73, 266,
  73, 268,
  73, 271,
  73, 273,
  73, 275,
  73, 276,
  73, 277,
  73, 278,
  73, 279,
  73, 280,
  73, 281,
  73, 282,
  73, 284,
  73, 285,
  73, 286,
  73, 288,
  73, 293,
  73, 294,
  73, 295,
  73, 296,
  73, 297,
  73, 299,
  73, 300,
  74, 75,
  74, 76,
  74, 78,
  74, 79,
  74, 81,
  74, 82,
  74, 83,
  74, 84,
  74, 85,
  74, 86,
  74, 88,
  74, 89,
  74, 91,
  74, 93,
  74, 94,
  74, 96,
  74, 101,
  74, 102,
  74, 103,
  74, 104,
  74, 105,
  74, 106,
  74, 107,
  74, 109,
  74, 110,
  74, 112,
  74, 116,
  74, 118,
  74, 121,
  74, 122,
  74, 126,
  74, 130,
  74, 134,
  74, 135,
  74, 137,
  74, 139,
  74, 141,
  74, 142,
  74, 143,
  74, 151,
  74, 154,
  74, 155,
  74, 156,
  74, 157,
  74, 158,
  74, 162,
  74, 164,
  74, 167,
  74, 168,
  74, 170,
  74, 171,
  74, 172,
  74, 174,
  74, 175,
  74, 180,
  74, 181,
  74, 186,
  74, 191,
  74, 192,
  74, 196,
  74, 197,
  74, 198,
  74, 200,
  74, 201,
  74, 202,
  74, 203,
  74, 204,
  74, 205,
  74, 206,
  74, 209,
  74, 212,
  74, 215,
  74, 216,
  74, 218,
  74, 219,
  74, 222,
  74, 224,
  74, 227,
  74, 229,
  74, 230,
  74, 232,
  74, 233,
  74, 235,
  74, 238,
  74, 240,
  74, 243,
  74, 244,
  74, 246,
  74, 247,
  74, 248,
  74, 251,
  74, 252,
  74, 253,
  74, 256,
  74, 260,
  74, 261,
  74, 262,
  74, 264,
  74, 265,
  74, 267,
  74, 269,
  74, 270,
  74, 271,
  74, 274,
  74, 278,
  74, 279,
  74, 280,
  74, 282,
  74, 283,
  74, 284,
  74, 285,
  74, 286,
  74, 287,
  74, 290,
  74, 292,
  74, 296,
  74, 297,
  75, 76,
  75, 77,
  75, 79,
  75, 80,
  75, 86,
  75, 90,
  75, 93,
  75, 94,
  75, 95,
  75, 97,
  75, 101,
  75, 105,
  75, 106,
  75, 108,
  75, 109,
  75, 113,
  75, 116,
  75, 121,
  75, 126,
  75, 127,
  75, 129,
  75, 131,
  75, 134,
  75, 135,
  75, 136,
  75, 137,
  75, 139,
  75, 140,
  75, 142,
  75, 143,
  75, 144,
  75, 146,
  75, 148,
  75, 149,
  75, 151,
  75, 154,
  75, 156,
  75, 157,
  75, 158,
  75, 165,
  75, 166,
  75, 167,
  75, 168,
  75, 170,
  75, 171,
  75, 172,
  75, 173,
  75, 174,
  75, 177,
  75, 178,
  75, 179,
  75, 182,
  75, 183,
  75, 184,
  75, 187,
  75, 190,
  75, 191,
  75, 194,
  75, 195,
  75, 196,
  75, 197,
  75, 199,
  75, 200,
  75, 202,
  75, 209,
  75, 211,
  75, 212,
  75, 213,
  75, 215,
  75, 216,
  75, 217,
  75, 222,
  75, 224,
  75, 227,
  75, 228,
  75, 230,
  75, 231,
  75, 237,
  75, 239,
  75, 240,
  75, 242,
  75, 243,
  75, 245,
  75, 246,
  75, 247,
  75, 249,
  75, 250,
  75, 253,
  75, 256,
  75, 259,
  75, 262,
  75, 263,
  75, 264,
  75, 265,
  75, 267,
  75, 270,
  75, 273,
  75, 274,
  75, 278,
  75, 280,
  75, 285,
  75, 286,
  75, 287,
  75, 289,
  75, 290,
  75, 291,
  75, 293,
  75, 295,
  75, 299,
  76, 78,
  76, 79,
  76, 80,
  76, 82,
  76, 83,
  76, 84,
  76, 85,
  76, 86,
  76, 88,
  76, 89,
  76, 94,
  76, 95,
  76, 98,
  76, 99,
  76, 100,
  76, 101,
  76, 103,
  76, 104,
  76, 105,
  76, 111,
  76, 112,
  76, 114,
  76, 119,
  76, 120,
  76, 121,
  76, 122,
  76, 124,
  76, 125,
  76, 135,
  76, 137,
  76, 141,
  76, 143,
  76, 144,
  76, 145,
  76, 147,
  76, 151,
  76, 152,
  76, 153,
  76, 154,
  76, 162,
  76, 164,
  76, 165,
  76, 166,
  76, 168,
  76, 169,
  76, 171,
  76, 172,
  76, 173,
  76, 174,
  76, 175,
  76, 177,
  76, 179,
  76, 181,
  76, 183,
  76, 185,
  76, 186,
  76, 187,
  76, 188,
  76, 189,
  76, 190,
  76, 191,
  76, 196,
  76, 197,
  76, 200,
  76, 206,
  76, 208,
  76, 210,
  76, 211,
  76, 212,
  76, 213,
  76, 215,
  76, 216,
  76, 217,
  76, 218,
  76, 220,
  76, 222,
  76, 227,
  76, 228,
  76, 229,
  76, 232,
  76, 234,
  76, 236,
  76, 238,
  76, 240,
  76, 241,
  76, 243,
  76, 244,
  76, 245,
  76, 246,
  76, 251,
  76, 254,
  76, 255,
  76, 257,
  76, 262,
  76, 263,
  76, 265,
  76, 266,
  76, 267,
  76, 268,
  76, 269,
  76, 270,
  76, 271,
  76, 273,
  76, 274,
  76, 280,
  76, 282,
  76, 284,
  76, 285,
  76, 286,
  76, 289,
  76, 296,
  76, 297,
  76, 299,
  77, 81,
  77, 82,
  77, 89,
  77, 91,
  77, 93,
  77, 94,
  77, 96,
  77, 98,
  77, 100,
  77, 103,
  77, 104,
  77, 108,
  77, 110,
  77, 114,
  77, 116,
  77, 119,
  77, 120,
  77, 121,
  77, 123,
  77, 124,
  77, 126,
  77, 128,
  77, 129,
  77, 130,
  77, 131,
  77, 132,
  77, 133,
  77, 134,
  77, 137,
  77, 138,
  77, 140,
  77, 141,
  77, 143,
  77, 144,
  77, 148,
  77, 150,
  77, 151,
  77, 156,
  77, 158,
  77, 159,
  77, 160,
  77, 162,
  77, 163,
  77, 164,
  77, 165,
  77, 166,
  77, 168,
  77, 169,
  77, 170,
  77, 171,
  77, 172,
  77, 173,
  77, 176,
  77, 178,
  77, 181,
  77, 183,
  77, 184,
  77, 185,
  77, 186,
  77, 187,
  77, 189,
  77, 190,
  77, 192,
  77, 193,
  77, 196,
  77, 197,
  77, 198,
  77, 199,
  77, 200,
  77, 201,
  77, 203,
  77, 204,
  77, 206,
  77, 209,
  77, 212,
  77, 214,
  77, 216,
  77, 218,
  77, 220,
  77, 221,
  77, 223,
  77, 227,
  77, 230,
  77, 234,
  77, 235,
  77, 240,
  77, 242,
  77, 243,
  77, 251,
  77, 252,
  77, 255,
  77, 256,
  77, 258,
  77, 259,
  77, 260,
  77, 262,
  77, 264,
  77, 265,
  77, 266,
  77, 267,
  77, 268,
  77, 270,
  77, 271,
  77, 272,
  77, 274,
  77, 276,
  77, 279,
  77, 280,
  77, 281,
  77, 283,
  77, 284,
  77, 285,
  77, 287,
  77, 288,
  77, 289,
  77, 292,
  77, 295,
  77, 296,
  77, 297,
  77, 298,
  77, 300,
  78, 80,
  78, 81,
  78, 82,
  78, 83,
  78, 84,
  78, 94,
  78, 95,
  78, 105,
  78, 106,
  78, 107,
  78, 108,
  78, 109,
  78, 112,
  78, 116,
  78, 117,
  78, 119,
  78, 121,
  78, 122,
  78, 123,
  78, 124,
  78, 126,
  78, 130,
  78, 131,
  78, 132,
  78, 139,
  78, 140,
  78, 141,
  78, 143,
  78, 144,
  78, 145,
  78, 146,
  78, 147,
  78, 149,
  78, 152,
  78, 153,
  78, 154,
  78, 159,
  78, 160,
  78, 161,
  78, 162,
  78, 163,
  78, 165,
  78, 166,
  78, 167,
  78, 168,
  78, 174,
  78, 175,
  78, 182,
  78, 186,
  78, 187,
  78, 189,
  78, 191,
  78, 192,
  78, 196,
  78, 197,
  78, 198,
  78, 202,
  78, 203,
  78, 205,
  78, 206,
  78, 208,
  78, 209,
  78, 213,
  78, 215,
  78, 216,
  78, 218,
  78, 219,
  78, 220,
  78, 221,
  78, 222,
  78, 223,
  78, 226,
  78, 227,
  78, 228,
  78, 229,
  78, 230,
  78, 237,
  78, 240,
  78, 241,
  78, 242,
  78, 243,
  78, 245,
  78, 246,
  78, 253,
  78, 255,
  78, 256,
  78, 257,
  78, 260,
  78, 261,
  78, 262,
  78, 267,
  78, 269,
  78, 270,
  78, 271,
  78, 272,
  78, 276,
  78, 277,
  78, 278,
  78, 280,
  78, 282,
  78, 284,
  78, 286,
  78, 287,
  78, 289,
  78, 290,
  78, 293,
  78, 294,
  78, 296,
  78, 297,
  78, 299,
  78, 300,
  79, 82,
  79, 83,
  79, 85,
  79, 86,
  79, 87,
  79, 89,
  79, 91,
  79, 92,
  79, 93,
  79, 94,
  79, 96,
  79, 97,
  79, 100,
  79, 102,
  79, 106,
  79, 107,
  79, 108,
  79, 109,
  79, 110,
  79, 114,
  79, 117,
  79, 119,
  79, 120,
  79, 122,
  79, 124,
  79, 125,
  79, 131,
  79, 133,
  79, 134,
  79, 137,
  79, 139,
  79, 141,
  79, 142,
  79, 144,
  79, 151,
  79, 152,
  79, 153,
  79, 154,
  79, 156,
  79, 157,
  79, 160,
  79, 161,
  79, 164,
  79, 165,
  79, 169,
  79, 175,
  79, 178,
  79, 180,
  79, 184,
  79, 185,
  79, 186,
  79, 188,
  79, 191,
  79, 193,
  79, 194,
  79, 196,
  79, 200,
  79, 203,
  79, 204,
  79, 208,
  79, 213,
  79, 215,
  79, 218,
  79, 219,
  79, 221,
  79, 223,
  79, 227,
  79, 230,
  79, 232,
  79, 234,
  79, 235,
  79, 238,
  79, 242,
  79, 244,
  79, 246,
  79, 247,
  79, 253,
  79, 254,
  79, 257,
  79, 259,
  79, 260,
  79, 264,
  79, 266,
  79, 267,
  79, 268,
  79, 269,
  79, 270,
  79, 271,
  79, 272,
  79, 273,
  79, 277,
  79, 278,
  79, 279,
  79, 280,
  79, 283,
  79, 285,
  79, 286,
  79, 289,
  79, 290,
  79, 292,
  79, 293,
  79, 294,
  79, 295,
  79, 296,
  79, 298,
  79, 299,
  80, 81,
  80, 83,
  80, 84,
  80, 87,
  80, 88,
  80, 89,
  80, 90,
  80, 91,
  80, 93,
  80, 94,
  80, 95,
  80, 97,
  80, 98,
  80, 99,
  80, 100,
  80, 101,
  80, 106,
  80, 107,
  80, 110,
  80, 111,
  80, 112,
  80, 113,
  80, 115,
  80, 116,
  80, 117,
  80, 120,
  80, 123,
  80, 126,
  80, 127,
  80, 129,
  80, 134,
  80, 135,
  80, 136,
  80, 138,
  80, 140,
  80, 143,
  80, 145,
  80, 147,
  80, 148,
  80, 149,
  80, 151,
  80, 152,
  80, 155,
  80, 156,
  80, 163,
  80, 164,
  80, 165,
  80, 166,
  80, 167,
  80, 168,
  80, 169,
  80, 172,
  80, 173,
  80, 174,
  80, 179,
  80, 181,
  80, 182,
  80, 184,
  80, 190,
  80, 191,
  80, 192,
  80, 193,
  80, 194,
  80, 195,
  80, 196,
  80, 198,
  80, 200,
  80, 201,
  80, 202,
  80, 203,
  80, 204,
  80, 205,
  80, 208,
  80, 209,
  80, 210,
  80, 213,
  80, 214,
  80, 215,
  80, 216,
  80, 217,
  80, 220,
  80, 222,
  80, 223,
  80, 224,
  80, 233,
  80, 234,
  80, 237,
  80, 238,
  80, 239,
  80, 240,
  80, 248,
  80, 249,
  80, 252,
  80, 253,
  80, 254,
  80, 255,
  80, 257,
  80, 258,
  80, 260,
  80, 261,
  80, 262,
  80, 263,
  80, 266,
  80, 267,
  80, 268,
  80, 270,
  80, 271,
  80, 272,
  80, 274,
  80, 275,
  80, 276,
  80, 278,
  80, 279,
  80, 280,
  80, 282,
  80, 283,
  80, 285,
  80, 286,
  80, 288,
  80, 293,
  80, 296,
  80, 298,
  81, 85,
  81, 87,
  81, 88,
  81, 89,
  81, 91,
  81, 92,
  81, 93,
  81, 95,
  81, 96,
  81, 97,
  81, 102,
  81, 103,
  81, 106,
  81, 107,
  81, 109,
  81, 111,
  81, 114,
  81, 119,
  81, 122,
  81, 123,
  81, 124,
  81, 126,
  81, 127,
  81, 132,
  81, 141,
  81, 142,
  81, 145,
  81, 147,
  81, 149,
  81, 151,
  81, 153,
  81, 156,
  81, 157,
  81, 162,
  81, 165,
  81, 166,
  81, 167,
  81, 170,
  81, 173,
  81, 175,
  81, 176,
  81, 182,
  81, 183,
  81, 184,
  81, 186,
  81, 188,
  81, 189,
  81, 192,
  81, 194,
  81, 200,
  81, 201,
  81, 202,
  81, 203,
  81, 205,
  81, 206,
  81, 208,
  81, 210,
  81, 212,
  81, 216,
  81, 221,
  81, 222,
  81, 223,
  81, 225,
  81, 226,
  81, 228,
  81, 230,
  81, 233,
  81, 234,
  81, 239,
  81, 240,
  81, 241,
  81, 245,
  81, 249,
  81, 250,
  81, 251,
  81, 257,
  81, 258,
  81, 259,
  81, 261,
  81, 264,
  81, 266,
  81, 270,
  81, 273,
  81, 274,
  81, 277,
  81, 278,
  81, 279,
  81, 282,
  81, 283,
  81, 285,
  81, 286,
  81, 287,
  81, 288,
  81, 289,
  81, 290,
  81, 291,
  81, 292,
  81, 293,
  81, 295,
  81, 297,
  82, 84,
  82, 85,
  82, 89,
  82, 92,
  82, 93,
  82, 96,
  82, 97,
  82, 98,
  82, 99,
  82, 100,
  82, 101,
  82, 103,
  82, 106,
  82, 107,
  82, 109,
  82, 111,
  82, 113,
  82, 114,
  82, 116,
  82, 118,
  82, 120,
  82, 127,
  82, 128,
  82, 130,
  82, 133,
  82, 138,
  82, 140,
  82, 143,
  82, 144,
  82, 146,
  82, 147,
  82, 148,
  82, 150,
  82, 152,
  82, 153,
  82, 154,
  82, 156,
  82, 158,
  82, 159,
  82, 163,
  82, 164,
  82, 165,
  82, 166,
  82, 170,
  82, 175,
  82, 176,
  82, 178,
  82, 183,
  82, 187,
  82, 195,
  82, 199,
  82, 200,
  82, 201,
  82, 203,
  82, 211,
  82, 212,
  82, 214,
  82, 215,
  82, 217,
  82, 220,
  82, 221,
  82, 222,
  82, 223,
  82, 224,
  82, 226,
  82, 228,
  82, 230,
  82, 231,
  82, 233,
  82, 235,
  82, 238,
  82, 239,
  82, 240,
  82, 243,
  82, 244,
  82, 245,
  82, 246,
  82, 247,
  82, 248,
  82, 250,
  82, 252,
  82, 253,
  82, 254,
  82, 255,
  82, 257,
  82, 259,
  82, 262,
  82, 265,
  82, 267,
  82, 268,
  82, 269,
  82, 270,
  82, 271,
  82, 274,
  82, 277,
  82, 278,
  82, 279,
  82, 280,
  82, 282,
  82, 285,
  82, 287,
  82, 288,
  82, 294,
  82, 295,
  82, 296,
  83, 85,
  83, 86,
  83, 88,
  83, 90,
  83, 92,
  83, 93,
  83, 101,
  83, 104,
  83, 105,
  83, 109,
  83, 112,
  83, 113,
  83, 116,
  83, 119,
  83, 120,
  83, 121,
  83, 123,
  83, 124,
  83, 127,
  83, 128,
  83, 129,
  83, 130,
  83, 137,
  83, 139,
  83, 146,
  83, 149,
  83, 151,
  83, 152,
  83, 153,
  83, 154,
  83, 155,
  83, 156,
  83, 162,
  83, 164,
  83, 165,
  83, 166,
  83, 167,
  83, 168,
  83, 170,
  83, 171,
  83, 175,
  83, 184,
  83, 185,
  83, 190,
  83, 191,
  83, 193,
  83, 195,
  83, 196,
  83, 199,
  83, 200,
  83, 201,
  83, 204,
  83, 205,
  83, 206,
  83, 207,
  83, 208,
  83, 209,
  83, 210,
  83, 212,
  83, 213,
  83, 215,
  83, 216,
  83, 219,
  83, 221,
  83, 223,
  83, 226,
  83, 229,
  83, 233,
  83, 234,
  83, 235,
  83, 236,
  83, 240,
  83, 241,
  83, 242,
  83, 244,
  83, 246,
  83, 248,
  83, 249,
  83, 251,
  83, 252,
  83, 253,
  83, 257,
  83, 260,
  83, 265,
  83, 267,
  83, 272,
  83, 273,
  83, 277,
  83, 278,
  83, 279,
  83, 280,
  83, 281,
  83, 284,
  83, 285,
  83, 291,
  83, 295,
  83, 296,
  83, 297,
  83, 299,
  84, 86,
  84, 92,
  84, 93,
  84, 94,
  84, 96,
  84, 104,
  84, 105,
  84, 107,
  84, 109,
  84, 110,
  84, 114,
  84, 115,
  84, 117,
  84, 119,
  84, 122,
  84, 127,
  84, 128,
  84, 129,
  84, 133,
  84, 138,
  84, 140,
  84, 141,
  84, 142,
  84, 144,
  84, 145,
  84, 146,
  84, 148,
  84, 151,
  84, 152,
  84, 154,
  84, 156,
  84, 157,
  84, 160,
  84, 161,
  84, 165,
  84, 168,
  84, 172,
  84, 173,
  84, 174,
  84, 176,
  84, 178,
  84, 181,
  84, 182,
  84, 183,
  84, 185,
  84, 191,
  84, 193,
  84, 194,
  84, 195,
  84, 196,
  84, 200,
  84, 201,
  84, 203,
  84, 204,
  84, 205,
  84, 206,
  84, 207,
  84, 208,
  84, 210,
  84, 212,
  84, 214,
  84, 215,
  84, 218,
  84, 220,
  84, 222,
  84, 223,
  84, 224,
  84, 225,
  84, 227,
  84, 231,
  84, 233,
  84, 236,
  84, 239,
  84, 244,
  84, 245,
  84, 247,
  84, 249,
  84, 251,
  84, 252,
  84, 253,
  84, 256,
  84, 258,
  84, 261,
  84, 264,
  84, 265,
  84, 267,
  84, 268,
  84, 272,
  84, 273,
  84, 274,
  84, 276,
  84, 277,
  84, 281,
  84, 282,
  84, 283,
  84, 287,
  84, 288,
  84, 291,
  84, 294,
  84, 295,
  84, 300,
  85, 86,
  85, 88,
  85, 89,
  85, 90,
  85, 91,
  85, 94,
  85, 96,
  85, 98,
  85, 99,
  85, 100,
  85, 101,
  85, 103,
  85, 104,
  85, 106,
  85, 108,
  85, 111,
  85, 112,
  85, 113,
  85, 115,
  85, 117,
  85, 118,
  85, 119,
  85, 121,
  85, 122,
  85, 123,
  85, 125,
  85, 126,
  85, 128,
  85, 129,
  85, 130,
  85, 131,
  85, 133,
  85, 136,
  85, 139,
  85, 140,
  85, 144,
  85, 152,
  85, 153,
  85, 155,
  85, 159,
  85, 161,
  85, 162,
  85, 163,
  85, 164,
  85, 167,
  85, 168,
  85, 169,
  85, 170,
  85, 172,
  85, 173,
  85, 175,
  85, 176,
  85, 178,
  85, 179,
  85, 180,
  85, 182,
  85, 184,
  85, 185,
  85, 187,
  85, 190,
  85, 191,
  85, 192,
  85, 193,
  85, 194,
  85, 197,
  85, 198,
  85, 202,
  85, 204,
  85, 206,
  85, 210,
  85, 213,
  85, 215,
  85, 216,
  85, 218,
  85, 221,
  85, 223,
  85, 230,
  85, 232,
  85, 233,
  85, 234,
  85, 235,
  85, 236,
  85, 239,
  85, 241,
  85, 243,
  85, 244,
  85, 249,
  85, 250,
  85, 254,
  85, 257,
  85, 259,
  85, 260,
  85, 262,
  85, 268,
  85, 269,
  85, 272,
  85, 275,
  85, 277,
  85, 278,
  85, 279,
  85, 280,
  85, 281,
  85, 282,
  85, 285,
  85, 286,
  85, 289,
  85, 293,
  85, 297,
  85, 298,
  86, 87,
  86, 88,
  86, 90,
  86, 91,
  86, 92,
  86, 94,
  86, 95,
  86, 96,
  86, 99,
  86, 100,
  86, 102,
  86, 104,
  86, 105,
  86, 107,
  86, 109,
  86, 110,
  86, 112,
  86, 116,
  86, 117,
  86, 120,
  86, 124,
  86, 125,
  86, 129,
  86, 131,
  86, 132,
  86, 133,
  86, 134,
  86, 135,
  86, 137,
  86, 140,
  86, 141,
  86, 146,
  86, 147,
  86, 151,
  86, 152,
  86, 153,
  86, 157,
  86, 160,
  86, 162,
  86, 163,
  86, 164,
  86, 166,
  86, 167,
  86, 168,
  86, 169,
  86, 171,
  86, 174,
  86, 175,
  86, 176,
  86, 177,
  86, 178,
  86, 179,
  86, 180,
  86, 183,
  86, 190,
  86, 191,
  86, 193,
  86, 195,
  86, 198,
  86, 199,
  86, 203,
  86, 209,
  86, 211,
  86, 213,
  86, 215,
  86, 222,
  86, 232,
  86, 233,
  86, 234,
  86, 236,
  86, 240,
  86, 241,
  86, 243,
  86, 246,
  86, 249,
  86, 255,
  86, 256,
  86, 258,
  86, 262,
  86, 263,
  86, 271,
  86, 273,
  86, 275,
  86, 277,
  86, 278,
  86, 283,
  86, 286,
  86, 288,
  86, 289,
  86, 294,
  86, 296,
  86, 299,
  87, 89,
  87, 90,
  87, 91,
  87, 93,
  87, 94,
  87, 96,
  87, 97,
  87, 98,
  87, 99,
  87, 100,
  87, 106,
  87, 112,
  87, 113,
  87, 114,
  87, 116,
  87, 118,
  87, 119,
  87, 120,
  87, 121,
  87, 122,
  87, 124,
  87, 126,
  87, 127,
  87, 130,
  87, 135,
  87, 136,
  87, 137,
  87, 140,
  87, 142,
  87, 145,
  87, 146,
  87, 147,
  87, 149,
  87, 154,
  87, 155,
  87, 156,
  87, 159,
  87, 161,
  87, 162,
  87, 163,
  87, 167,
  87, 169,
  87, 170,
  87, 175,
  87, 181,
  87, 182,
  87, 183,
  87, 192,
  87, 194,
  87, 195,
  87, 197,
  87, 198,
  87, 199,
  87, 201,
  87, 202,
  87, 204,
  87, 206,
  87, 207,
  87, 208,
  87, 209,
  87, 210,
  87, 211,
  87, 212,
  87, 215,
  87, 216,
  87, 218,
  87, 219,
  87, 222,
  87, 224,
  87, 225,
  87, 227,
  87, 230,
  87, 231,
  87, 233,
  87, 236,
  87, 237,
  87, 238,
  87, 241,
  87, 242,
  87, 244,
  87, 246,
  87, 247,
  87, 248,
  87, 249,
  87, 253,
  87, 258,
  87, 259,
  87, 260,
  87, 264,
  87, 265,
  87, 266,
  87, 269,
  87, 270,
  87, 272,
  87, 274,
  87, 275,
  87, 276,
  87, 282,
  87, 283,
  87, 285,
  87, 288,
  87, 290,
  87, 293,
  87, 294,
  87, 295,
  87, 296,
  87, 298,
  87, 299,
  87, 300,
  88, 89,
  88, 90,
  88, 91,
  88, 92,
  88, 93,
  88, 94,
  88, 99,
  88, 100,
  88, 103,
  88, 105,
  88, 106,
  88, 109,
  88, 112,
  88, 113,
  88, 116,
  88, 117,
  88, 118,
  88, 119,
  88, 120,
  88, 123,
  88, 127,
  88, 128,
  88, 132,
  88, 133,
  88, 134,
  88, 136,
  88, 137,
  88, 140,
  88, 141,
  88, 142,
  88, 143,
  88, 146,
  88, 147,
  88, 148,
  88, 151,
  88, 152,
  88, 154,
  88, 155,
  88, 162,
  88, 165,
  88, 168,
  88, 169,
  88, 170,
  88, 172,
  88, 173,
  88, 174,
  88, 175,
  88, 177,
  88, 183,
  88, 187,
  88, 188,
  88, 190,
  88, 192,
  88, 193,
  88, 196,
  88, 201,
  88, 202,
  88, 203,
  88, 205,
  88, 206,
  88, 207,
  88, 208,
  88, 209,
  88, 210,
  88, 211,
  88, 212,
  88, 213,
  88, 214,
  88, 216,
  88, 217,
  88, 218,
  88, 219,
  88, 221,
  88, 222,
  88, 223,
  88, 224,
  88, 232,
  88, 234,
  88, 235,
  88, 236,
  88, 237,
  88, 242,
  88, 244,
  88, 245,
  88, 246,
  88, 248,
  88, 249,
  88, 250,
  88, 252,
  88, 253,
  88, 255,
  88, 256,
  88, 261,
  88, 262,
  88, 263,
  88, 264,
  88, 266,
  88, 267,
  88, 268,
  88, 269,
  88, 271,
  88, 272,
  88, 273,
  88, 278,
  88, 279,
  88, 281,
  88, 282,
  88, 284,
  88, 285,
  88, 286,
  88, 287,
  88, 293,
  88, 294,
  88, 295,
  88, 296,
  88, 300,
  89, 90,
  89, 92,
  89, 94,
  89, 96,
  89, 98,
  89, 99,
  89, 103,
  89, 104,
  89, 106,
  89, 107,
  89, 108,
  89, 109,
  89, 112,
  89, 115,
  89, 116,
  89, 118,
  89, 119,
  89, 120,
  89, 121,
  89, 122,
  89, 123,
  89, 126,
  89, 127,
  89, 128,
  89, 130,
  89, 132,
  89, 133,
  89, 136,
  89, 140,
  89, 141,
  89, 146,
  89, 148,
  89, 152,
  89, 154,
  89, 155,
  89, 156,
  89, 159,
  89, 163,
  89, 164,
  89, 165,
  89, 168,
  89, 170,
  89, 172,
  89, 173,
  89, 175,
  89, 176,
  89, 179,
  89, 182,
  89, 183,
  89, 184,
  89, 185,
  89, 186,
  89, 188,
  89, 189,
  89, 191,
  89, 192,
  89, 193,
  89, 196,
  89, 197,
  89, 198,
  89, 200,
  89, 201,
  89, 202,
  89, 204,
  89, 207,
  89, 209,
  89, 210,
  89, 211,
  89, 212,
  89, 214,
  89, 215,
  89, 220,
  89, 223,
  89, 225,
  89, 226,
  89, 228,
  89, 229,
  89, 230,
  89, 232,
  89, 233,
  89, 235,
  89, 236,
  89, 237,
  89, 238,
  89, 240,
  89, 242,
  89, 247,
  89, 248,
  89, 251,
  89, 253,
  89, 255,
  89, 256,
  89, 259,
  89, 260,
  89, 261,
  89, 262,
  89, 263,
  89, 266,
  89, 267,
  89, 268,
  89, 269,
  89, 274,
  89, 276,
  89, 278,
  89, 279,
  89, 280,
  89, 281,
  89, 283,
  89, 286,
  89, 288,
  89, 289,
  89, 290,
  89, 292,
  89, 294,
  89, 299,
  90, 91,
  90, 92,
  90, 94,
  90, 99,
  90, 101,
  90, 103,
  90, 104,
  90, 105,
  90, 106,
  90, 107,
  90, 108,
  90, 110,
  90, 111,
  90, 112,
  90, 113,
  90, 116,
  90, 119,
  90, 120,
  90, 121,
  90, 122,
  90, 123,
  90, 124,
  90, 125,
  90, 129,
  90, 130,
  90, 131,
  90, 133,
  90, 134,
  90, 135,
  90, 136,
  90, 137,
  90, 140,
  90, 142,
  90, 144,
  90, 146,
  90, 147,
  90, 149,
  90, 150,
  90, 151,
  90, 155,
  90, 156,
  90, 159,
  90, 160,
  90, 161,
  90, 162,
  90, 168,
  90, 169,
  90, 172,
  90, 174,
  90, 175,
  90, 181,
  90, 189,
  90, 191,
  90, 192,
  90, 193,
  90, 194,
  90, 195,
  90, 196,
  90, 202,
  90, 203,
  90, 205,
  90, 207,
  90, 210,
  90, 211,
  90, 212,
  90, 214,
  90, 215,
  90, 216,
  90, 219,
  90, 221,
  90, 225,
  90, 227,
  90, 230,
  90, 233,
  90, 237,
  90, 238,
  90, 239,
  90, 241,
  90, 246,
  90, 247,
  90, 248,
  90, 249,
  90, 250,
  90, 251,
  90, 252,
  90, 253,
  90, 255,
  90, 257,
  90, 258,
  90, 260,
  90, 262,
  90, 265,
  90, 266,
  90, 267,
  90, 268,
  90, 270,
  90, 271,
  90, 272,
  90, 273,
  90, 275,
  90, 278,
  90, 283,
  90, 285,
  90, 286,
  90, 288,
  90, 289,
  90, 291,
  90, 294,
  90, 296,
  90, 297,
  91, 92,
  91, 93,
  91, 94,
  91, 95,
  91, 98,
  91, 99,
  91, 100,
  91, 101,
  91, 102,
  91, 106,
  91, 109,
  91, 110,
  91, 112,
  91, 114,
  91, 116,
  91, 121,
  91, 122,
  91, 123,
  91, 124,
  91, 125,
  91, 126,
  91, 128,
  91, 131,
  91, 133,
  91, 134,
  91, 136,
  91, 137,
  91, 139,
  91, 142,
  91, 147,
  91, 149,
  91, 151,
  91, 152,
  91, 153,
  91, 155,
  91, 156,
  91, 159,
  91, 160,
  91, 165,
  91, 166,
  91, 167,
  91, 168,
  91, 169,
  91, 170,
  91, 172,
  91, 175,
  91, 177,
  91, 179,
  91, 180,
  91, 182,
  91, 184,
  91, 185,
  91, 188,
  91, 192,
  91, 193,
  91, 194,
  91, 196,
  91, 197,
  91, 199,
  91, 201,
  91, 204,
  91, 205,
  91, 210,
  91, 211,
  91, 212,
  91, 214,
  91, 216,
  91, 217,
  91, 223,
  91, 224,
  91, 225,
  91, 230,
  91, 232,
  91, 234,
  91, 235,
  91, 238,
  91, 239,
  91, 242,
  91, 244,
  91, 245,
  91, 246,
  91, 247,
  91, 249,
  91, 250,
  91, 252,
  91, 253,
  91, 254,
  91, 256,
  91, 257,
  91, 258,
  91, 259,
  91, 261,
  91, 264,
  91, 266,
  91, 267,
  91, 268,
  91, 270,
  91, 271,
  91, 273,
  91, 274,
  91, 277,
  91, 281,
  91, 282,
  91, 284,
  91, 285,
  91, 286,
  91, 287,
  91, 288,
  91, 292,
  91, 294,
  91, 296,
  91, 298,
  92, 94,
  92, 97,
  92, 100,
  92, 101,
  92, 102,
  92, 105,
  92, 106,
  92, 107,
  92, 108,
  92, 109,
  92, 111,
  92, 117,
  92, 118,
  92, 121,
  92, 123,
  92, 125,
  92, 132,
  92, 136,
  92, 137,
  92, 138,
  92, 139,
  92, 143,
  92, 144,
  92, 145,
  92, 147,
  92, 149,
  92, 152,
  92, 153,
  92, 155,
  92, 157,
  92, 158,
  92, 161,
  92, 163,
  92, 164,
  92, 165,
  92, 168,
  92, 169,
  92, 171,
  92, 176,
  92, 177,
  92, 178,
  92, 179,
  92, 185,
  92, 188,
  92, 189,
  92, 193,
  92, 195,
  92, 197,
  92, 198,
  92, 200,
  92, 201,
  92, 202,
  92, 208,
  92, 210,
  92, 212,
  92, 215,
  92, 216,
  92, 219,
  92, 224,
  92, 226,
  92, 228,
  92, 230,
  92, 231,
  92, 234,
  92, 241,
  92, 249,
  92, 252,
  92, 255,
  92, 256,
  92, 258,
  92, 260,
  92, 262,
  92, 263,
  92, 265,
  92, 267,
  92, 269,
  92, 271,
  92, 272,
  92, 273,
  92, 274,
  92, 277,
  92, 278,
  92, 281,
  92, 283,
  92, 284,
  92, 289,
  92, 291,
  92, 292,
  92, 297,
  92, 298,
  92, 300,
  93, 94,
  93, 96,
  93, 98,
  93, 99,
  93, 102,
  93, 104,
  93, 107,
  93, 110,
  93, 112,
  93, 114,
  93, 115,
  93, 116,
  93, 117,
  93, 118,
  93, 123,
  93, 125,
  93, 128,
  93, 130,
  93, 131,
  93, 134,
  93, 136,
  93, 137,
  93, 139,
  93, 142,
  93, 143,
  93, 144,
  93, 145,
  93, 148,
  93, 154,
  93, 155,
  93, 156,
  93, 157,
  93, 158,
  93, 159,
  93, 160,
  93, 163,
  93, 165,
  93, 166,
  93, 170,
  93, 171,
  93, 174,
  93, 176,
  93, 179,
  93, 183,
  93, 187,
  93, 188,
  93, 189,
  93, 191,
  93, 192,
  93, 197,
  93, 198,
  93, 199,
  93, 200,
  93, 201,
  93, 203,
  93, 204,
  93, 205,
  93, 206,
  93, 211,
  93, 212,
  93, 213,
  93, 215,
  93, 218,
  93, 221,
  93, 222,
  93, 224,
  93, 226,
  93, 227,
  93, 230,
  93, 233,
  93, 236,
  93, 237,
  93, 239,
  93, 241,
  93, 243,
  93, 245,
  93, 246,
  93, 247,
  93, 248,
  93, 249,
  93, 250,
  93, 252,
  93, 253,
  93, 256,
  93, 258,
  93, 259,
  93, 261,
  93, 263,
  93, 265,
  93, 268,
  93, 273,
  93, 274,
  93, 276,
  93, 277,
  93, 278,
  93, 279,
  93, 281,
  93, 282,
  93, 285,
  93, 287,
  93, 289,
  93, 290,
  93, 291,
  93, 294,
  93, 295,
  93, 296,
  93, 299,
  93, 300,
  94, 95,
  94, 96,
  94, 106,
  94, 107,
  94, 110,
  94, 112,
  94, 113,
  94, 115,
  94, 117,
  94, 119,
  94, 120,
  94, 121,
  94, 122,
  94, 123,
  94, 125,
  94, 126,
  94, 128,
  94, 129,
  94, 130,
  94, 131,
  94, 133,
  94, 134,
  94, 139,
  94, 140,
  94, 141,
  94, 143,
  94, 144,
  94, 145,
  94, 147,
  94, 149,
  94, 152,
  94, 155,
  94, 156,
  94, 160,
  94, 161,
  94, 162,
  94, 163,
  94, 164,
  94, 166,
  94, 169,
  94, 171,
  94, 174,
  94, 175,
  94, 177,
  94, 179,
  94, 180,
  94, 182,
  94, 183,
  94, 185,
  94, 188,
  94, 189,
  94, 190,
  94, 196,
  94, 197,
  94, 199,
  94, 200,
  94, 202,
  94, 203,
  94, 204,
  94, 205,
  94, 207,
  94, 208,
  94, 209,
  94, 210,
  94, 211,
  94, 212,
  94, 217,
  94, 222,
  94, 224,
  94, 226,
  94, 229,
  94, 230,
  94, 233,
  94, 235,
  94, 237,
  94, 238,
  94, 241,
  94, 242,
  94, 243,
  94, 244,
  94, 245,
  94, 246,
  94, 247,
  94, 248,
  94, 249,
  94, 251,
  94, 256,
  94, 260,
  94, 265,
  94, 271,
  94, 277,
  94, 278,
  94, 279,
  94, 283,
  94, 286,
  94, 288,
  94, 289,
  94, 290,
  94, 294,
  94, 298,
  94, 300,
  95, 96,
  95, 97,
  95, 98,
  95, 101,
  95, 102,
  95, 103,
  95, 106,
  95, 114,
  95, 115,
  95, 116,
  95, 117,
  95, 118,
  95, 119,
  95, 120,
  95, 121,
  95, 122,
  95, 124,
  95, 125,
  95, 127,
  95, 128,
  95, 129,
  95, 132,
  95, 133,
  95, 134,
  95, 135,
  95, 136,
  95, 137,
  95, 139,
  95, 140,
  95, 141,
  95, 142,
  95, 143,
  95, 144,
  95, 145,
  95, 147,
  95, 149,
  95, 152,
  95, 153,
  95, 155,
  95, 156,
  95, 157,
  95, 163,
  95, 164,
  95, 165,
  95, 167,
  95, 168,
  95, 170,
  95, 171,
  95, 173,
  95, 174,
  95, 176,
  95, 177,
  95, 180,
  95, 183,
  95, 186,
  95, 188,
  95, 197,
  95, 199,
  95, 202,
  95, 203,
  95, 205,
  95, 206,
  95, 209,
  95, 211,
  95, 216,
  95, 217,
  95, 218,
  95, 219,
  95, 220,
  95, 221,
  95, 222,
  95, 224,
  95, 225,
  95, 226,
  95, 227,
  95, 230,
  95, 231,
  95, 232,
  95, 236,
  95, 237,
  95, 238,
  95, 240,
  95, 242,
  95, 243,
  95, 244,
  95, 245,
  95, 246,
  95, 247,
  95, 251,
  95, 253,
  95, 254,
  95, 256,
  95, 260,
  95, 261,
  95, 264,
  95, 265,
  95, 266,
  95, 273,
  95, 275,
  95, 276,
  95, 279,
  95, 282,
  95, 283,
  95, 285,
  95, 286,
  95, 287,
  95, 288,
  95, 289,
  95, 291,
  95, 295,
  95, 297,
  95, 298,
  95, 300,
  96, 98,
  96, 99,
  96, 100,
  96, 103,
  96, 105,
  96, 106,
  96, 109,
  96, 111,
  96, 112,
  96, 113,
  96, 114,
  96, 116,
  96, 117,
  96, 118,
  96, 119,
  96, 120,
  96, 121,
  96, 122,
  96, 123,
  96, 125,
  96, 126,
  96, 127,
  96, 128,
  96, 132,
  96, 133,
  96, 134,
  96, 136,
  96, 137,
  96, 141,
  96, 143,
  96, 144,
  96, 147,
  96, 148,
  96, 150,
  96, 151,
  96, 152,
  96, 154,
  96, 155,
  96, 158,
  96, 159,
  96, 161,
  96, 163,
  96, 165,
  96, 166,
  96, 167,
  96, 169,
  96, 170,
  96, 171,
  96, 172,
  96, 173,
  96, 174,
  96, 177,
  96, 180,
  96, 183,
  96, 184,
  96, 185,
  96, 187,
  96, 188,
  96, 190,
  96, 193,
  96, 196,
  96, 199,
  96, 200,
  96, 201,
  96, 202,
  96, 203,
  96, 205,
  96, 207,
  96, 208,
  96, 211,
  96, 212,
  96, 213,
  96, 216,
  96, 217,
  96, 219,
  96, 220,
  96, 222,
  96, 224,
  96, 225,
  96, 226,
  96, 227,
  96, 229,
  96, 230,
  96, 231,
  96, 232,
  96, 233,
  96, 234,
  96, 235,
  96, 236,
  96, 238,
  96, 239,
  96, 240,
  96, 242,
  96, 244,
  96, 245,
  96, 249,
  96, 251,
  96, 252,
  96, 253,
  96, 254,
  96, 260,
  96, 262,
  96, 263,
  96, 266,
  96, 269,
  96, 271,
  96, 272,
  96, 274,
  96, 276,
  96, 278,
  96, 281,
  96, 282,
  96, 286,
  96, 288,
  96, 289,
  96, 292,
  96, 294,
  96, 295,
  96, 296,
  96, 299,
  96, 300,
  97, 98,
  97, 99,
  97, 100,
  97, 101,
  97, 104,
  97, 105,
  97, 106,
  97, 107,
  97, 108,
  97, 109,
  97, 110,
  97, 116,
  97, 117,
  97, 119,
  97, 122,
  97, 124,
  97, 126,
  97, 127,
  97, 129,
  97, 132,
  97, 133,
  97, 134,
  97, 137,
  97, 138,
  97, 139,
  97, 142,
  97, 143,
  97, 149,
  97, 150,
  97, 160,
  97, 162,
  97, 166,
  97, 169,
  97, 170,
  97, 172,
  97, 176,
  97, 180,
  97, 181,
  97, 183,
  97, 184,
  97, 189,
  97, 190,
  97, 191,
  97, 192,
  97, 193,
  97, 195,
  97, 196,
  97, 198,
  97, 200,
  97, 205,
  97, 208,
  97, 209,
  97, 210,
  97, 211,
  97, 212,
  97, 213,
  97, 214,
  97, 217,
  97, 218,
  97, 219,
  97, 220,
  97, 221,
  97, 223,
  97, 224,
  97, 225,
  97, 227,
  97, 228,
  97, 229,
  97, 231,
  97, 236,
  97, 237,
  97, 238,
  97, 239,
  97, 241,
  97, 242,
  97, 247,
  97, 251,
  97, 252,
  97, 259,
  97, 262,
  97, 265,
  97, 266,
  97, 267,
  97, 268,
  97, 272,
  97, 273,
  97, 274,
  97, 276,
  97, 278,
  97, 282,
  97, 283,
  97, 284,
  97, 285,
  97, 288,
  97, 290,
  97, 291,
  97, 292,
  97, 293,
  97, 295,
  97, 296,
  97, 298,
  98, 99,
  98, 100,
  98, 101,
  98, 105,
  98, 107,
  98, 108,
  98, 110,
  98, 111,
  98, 114,
  98, 117,
  98, 120,
  98, 125,
  98, 126,
  98, 129,
  98, 131,
  98, 132,
  98, 136,
  98, 137,
  98, 138,
  98, 140,
  98, 142,
  98, 147,
  98, 148,
  98, 149,
  98, 150,
  98, 151,
  98, 152,
  98, 157,
  98, 158,
  98, 162,
  98, 163,
  98, 165,
  98, 166,
  98, 168,
  98, 170,
  98, 171,
  98, 174,
  98, 177,
  98, 181,
  98, 183,
  98, 184,
  98, 185,
  98, 187,
  98, 189,
  98, 191,
  98, 192,
  98, 193,
  98, 196,
  98, 198,
  98, 199,
  98, 200,
  98, 201,
  98, 203,
  98, 207,
  98, 208,
  98, 212,
  98, 214,
  98, 215,
  98, 221,
  98, 223,
  98, 224,
  98, 229,
  98, 230,
  98, 233,
  98, 235,
  98, 237,
  98, 239,
  98, 241,
  98, 244,
  98, 248,
  98, 250,
  98, 251,
  98, 254,
  98, 256,
  98, 258,
  98, 259,
  98, 261,
  98, 265,
  98, 266,
  98, 268,
  98, 270,
  98, 271,
  98, 275,
  98, 278,
  98, 279,
  98, 281,
  98, 282,
  98, 283,
  98, 285,
  98, 286,
  98, 288,
  98, 292,
  98, 296,
  99, 102,
  99, 106,
  99, 110,
  99, 113,
  99, 115,
  99, 116,
  99, 120,
  99, 124,
  99, 125,
  99, 126,
  99, 128,
  99, 130,
  99, 134,
  99, 135,
  99, 136,
  99, 137,
  99, 139,
  99, 140,
  99, 142,
  99, 144,
  99, 146,
  99, 147,
  99, 149,
  99, 151,
  99, 152,
  99, 154,
  99, 155,
  99, 157,
  99, 159,
  99, 160,
  99, 161,
  99, 163,
  99, 164,
  99, 167,
  99, 168,
  99, 169,
  99, 173,
  99, 179,
  99, 180,
  99, 187,
  99, 188,
  99, 190,
  99, 191,
  99, 192,
  99, 195,
  99, 196,
  99, 198,
  99, 199,
  99, 203,
  99, 206,
  99, 208,
  99, 210,
  99, 215,
  99, 218,
  99, 219,
  99, 221,
  99, 224,
  99, 227,
  99, 229,
  99, 230,
  99, 231,
  99, 233,
  99, 235,
  99, 240,
  99, 244,
  99, 245,
  99, 248,
  99, 249,
  99, 251,
  99, 252,
  99, 253,
  99, 254,
  99, 255,
  99, 256,
  99, 258,
  99, 259,
  99, 262,
  99, 263,
  99, 264,
  99, 265,
  99, 266,
  99, 268,
  99, 269,
  99, 270,
  99, 272,
  99, 274,
  99, 277,
  99, 279,
  99, 280,
  99, 281,
  99, 282,
  99, 283,
  99, 285,
  99, 286,
  99, 287,
  99, 289,
  99, 290,
  99, 291,
  99, 293,
  99, 295,
  99, 297,
  99, 299,
  99, 300,
  100, 103,
  100, 104,
  100, 105,
  100, 106,
  100, 107,
  100, 110,
  100, 115,
  100, 117,
  100, 119,
  100, 120,
  100, 124,
  100, 125,
  100, 126,
  100, 127,
  100, 129,
  100, 130,
  100, 132,
  100, 133,
  100, 134,
  100, 135,
  100, 136,
  100, 137,
  100, 138,
  100, 141,
  100, 142,
  100, 144,
  100, 145,
  100, 147,
  100, 148,
  100, 152,
  100, 153,
  100, 156,
  100, 157,
  100, 158,
  100, 160,
  100, 163,
  100, 165,
  100, 170,
  100, 171,
  100, 173,
  100, 179,
  100, 180,
  100, 182,
  100, 183,
  100, 184,
  100, 186,
  100, 189,
  100, 191,
  100, 192,
  100, 193,
  100, 196,
  100, 197,
  100, 198,
  100, 201,
  100, 203,
  100, 204,
  100, 208,
  100, 214,
  100, 216,
  100, 218,
  100, 219,
  100, 220,
  100, 221,
  100, 224,
  100, 225,
  100, 226,
  100, 229,
  100, 234,
  100, 236,
  100, 237,
  100, 238,
  100, 241,
  100, 243,
  100, 244,
  100, 258,
  100, 260,
  100, 263,
  100, 264,
  100, 265,
  100, 266,
  100, 270,
  100, 271,
  100, 272,
  100, 276,
  100, 279,
  100, 280,
  100, 283,
  100, 284,
  100, 288,
  100, 289,
  100, 292,
  100, 297,
  100, 299,
  101, 103,
  101, 105,
  101, 106,
  101, 109,
  101, 111,
  101, 112,
  101, 113,
  101, 115,
  101, 119,
  101, 122,
  101, 123,
  101, 125,
  101, 126,
  101, 129,
  101, 130,
  101, 132,
  101, 134,
  101, 138,
  101, 140,
  101, 141,
  101, 149,
  101, 150,
  101, 153,
  101, 159,
  101, 161,
  101, 162,
  101, 163,
  101, 165,
  101, 167,
  101, 169,
  101, 171,
  101, 172,
  101, 173,
  101, 178,
  101, 181,
  101, 186,
  101, 187,
  101, 189,
  101, 191,
  101, 194,
  101, 195,
  101, 196,
  101, 197,
  101, 199,
  101, 201,
  101, 202,
  101, 205,
  101, 206,
  101, 207,
  101, 208,
  101, 213,
  101, 215,
  101, 219,
  101, 223,
  101, 225,
  101, 226,
  101, 229,
  101, 231,
  101, 233,
  101, 237,
  101, 240,
  101, 241,
  101, 246,
  101, 247,
  101, 252,
  101, 253,
  101, 254,
  101, 257,
  101, 258,
  101, 260,
  101, 263,
  101, 264,
  101, 267,
  101, 269,
  101, 271,
  101, 272,
  101, 273,
  101, 275,
  101, 276,
  101, 280,
  101, 282,
  101, 284,
  101, 288,
  101, 289,
  101, 290,
  101, 292,
  101, 297,
  101, 300,
  102, 104,
  102, 105,
  102, 106,
  102, 109,
  102, 111,
  102, 112,
  102, 115,
  102, 117,
  102, 121,
  102, 122,
  102, 124,
  102, 127,
  102, 128,
  102, 131,
  102, 133,
  102, 134,
  102, 135,
  102, 136,
  102, 138,
  102, 141,
  102, 144,
  102, 146,
  102, 147,
  102, 148,
  102, 149,
  102, 151,
  102, 154,
  102, 156,
  102, 157,
  102, 158,
  102, 159,
  102, 161,
  102, 162,
  102, 163,
  102, 164,
  102, 165,
  102, 166,
  102, 167,
  102, 169,
  102, 170,
  102, 171,
  102, 172,
  102, 173,
  102, 176,
  102, 179,
  102, 180,
  102, 184,
  102, 187,
  102, 188,
  102, 191,
  102, 192,
  102, 193,
  102, 196,
  102, 197,
  102, 199,
  102, 200,
  102, 201,
  102, 202,
  102, 203,
  102, 205,
  102, 208,
  102, 212,
  102, 213,
  102, 215,
  102, 217,
  102, 218,
  102, 221,
  102, 222,
  102, 224,
  102, 225,
  102, 226,
  102, 228,
  102, 232,
  102, 233,
  102, 237,
  102, 238,
  102, 239,
  102, 240,
  102, 243,
  102, 244,
  102, 245,
  102, 246,
  102, 250,
  102, 253,
  102, 254,
  102, 257,
  102, 258,
  102, 260,
  102, 262,
  102, 266,
  102, 267,
  102, 275,
  102, 277,
  102, 279,
  102, 280,
  102, 281,
  102, 282,
  102, 283,
  102, 284,
  102, 286,
  102, 287,
  102, 290,
  102, 291,
  102, 293,
  102, 294,
  102, 295,
  102, 296,
  102, 297,
  102, 298,
  102, 299,
  102, 300,
  103, 104,
  103, 107,
  103, 108,
  103, 111,
  103, 113,
  103, 114,
  103, 120,
  103, 121,
  103, 122,
  103, 125,
  103, 126,
  103, 127,
  103, 129,
  103, 130,
  103, 132,
  103, 133,
  103, 134,
  103, 135,
  103, 137,
  103, 138,
  103, 139,
  103, 140,
  103, 141,
  103, 144,
  103, 155,
  103, 157,
  103, 162,
  103, 163,
  103, 164,
  103, 168,
  103, 169,
  103, 170,
  103, 173,
  103, 175,
  103, 176,
  103, 182,
  103, 186,
  103, 189,
  103, 190,
  103, 191,
  103, 192,
  103, 197,
  103, 199,
  103, 200,
  103, 202,
  103, 203,
  103, 207,
  103, 210,
  103, 212,
  103, 215,
  103, 218,
  103, 219,
  103, 220,
  103, 221,
  103, 222,
  103, 223,
  103, 224,
  103, 227,
  103, 231,
  103, 232,
  103, 233,
  103, 234,
  103, 238,
  103, 244,
  103, 245,
  103, 246,
  103, 248,
  103, 249,
  103, 250,
  103, 251,
  103, 252,
  103, 253,
  103, 254,
  103, 257,
  103, 261,
  103, 266,
  103, 268,
  103, 272,
  103, 273,
  103, 275,
  103, 277,
  103, 278,
  103, 279,
  103, 280,
  103, 282,
  103, 284,
  103, 287,
  103, 288,
  103, 291,
  103, 292,
  103, 294,
  103, 295,
  103, 297,
  103, 299,
  103, 300,
  104, 105,
  104, 107,
  104, 108,
  104, 113,
  104, 116,
  104, 117,
  104, 118,
  104, 119,
  104, 120,
  104, 121,
  104, 122,
  104, 123,
  104, 124,
  104, 128,
  104, 129,
  104, 132,
  104, 133,
  104, 134,
  104, 135,
  104, 137,
  104, 138,
  104, 139,
  104, 140,
  104, 142,
  104, 143,
  104, 150,
  104, 151,
  104, 153,
  104, 154,
  104, 157,
  104, 164,
  104, 165,
  104, 167,
  104, 170,
  104, 177,
  104, 178,
  104, 179,
  104, 180,
  104, 181,
  104, 182,
  104, 183,
  104, 184,
  104, 185,
  104, 187,
  104, 191,
  104, 192,
  104, 194,
  104, 198,
  104, 200,
  104, 202,
  104, 207,
  104, 208,
  104, 210,
  104, 211,
  104, 212,
  104, 222,
  104, 224,
  104, 226,
  104, 229,
  104, 231,
  104, 232,
  104, 234,
  104, 236,
  104, 237,
  104, 238,
  104, 239,
  104, 242,
  104, 243,
  104, 244,
  104, 247,
  104, 248,
  104, 249,
  104, 250,
  104, 251,
  104, 253,
  104, 254,
  104, 259,
  104, 260,
  104, 262,
  104, 265,
  104, 266,
  104, 267,
  104, 269,
  104, 270,
  104, 271,
  104, 272,
  104, 273,
  104, 274,
  104, 275,
  104, 278,
  104, 281,
  104, 282,
  104, 285,
  104, 287,
  104, 289,
  104, 291,
  104, 292,
  104, 293,
  104, 294,
  104, 296,
  104, 298,
  104, 299,
  105, 112,
  105, 117,
  105, 118,
  105, 119,
  105, 120,
  105, 121,
  105, 122,
  105, 123,
  105, 124,
  105, 125,
  105, 126,
  105, 128,
  105, 129,
  105, 130,
  105, 131,
  105, 132,
  105, 134,
  105, 137,
  105, 140,
  105, 142,
  105, 151,
  105, 152,
  105, 156,
  105, 163,
  105, 164,
  105, 165,
  105, 166,
  105, 167,
  105, 168,
  105, 173,
  105, 174,
  105, 175,
  105, 176,
  105, 179,
  105, 181,
  105, 183,
  105, 184,
  105, 186,
  105, 187,
  105, 188,
  105, 189,
  105, 191,
  105, 192,
  105, 193,
  105, 195,
  105, 196,
  105, 197,
  105, 199,
  105, 200,
  105, 201,
  105, 202,
  105, 203,
  105, 205,
  105, 206,
  105, 207,
  105, 208,
  105, 211,
  105, 213,
  105, 216,
  105, 217,
  105, 218,
  105, 220,
  105, 221,
  105, 223,
  105, 225,
  105, 226,
  105, 227,
  105, 229,
  105, 231,
  105, 232,
  105, 235,
  105, 238,
  105, 240,
  105, 242,
  105, 245,
  105, 246,
  105, 247,
  105, 248,
  105, 251,
  105, 252,
  105, 253,
  105, 254,
  105, 258,
  105, 261,
  105, 263,
  105, 264,
  105, 265,
  105, 266,
  105, 267,
  105, 269,
  105, 273,
  105, 275,
  105, 276,
  105, 277,
  105, 281,
  105, 282,
  105, 284,
  105, 285,
  105, 288,
  105, 293,
  105, 294,
  105, 296,
  105, 299,
  106, 107,
  106, 109,
  106, 110,
  106, 111,
  106, 114,
  106, 116,
  106, 118,
  106, 120,
  106, 122,
  106, 123,
  106, 124,
  106, 126,
  106, 128,
  106, 129,
  106, 130,
  106, 136,
  106, 141,
  106, 143,
  106, 147,
  106, 149,
  106, 151,
  106, 153,
  106, 154,
  106, 155,
  106, 156,
  106, 158,
  106, 160,
  106, 161,
  106, 162,
  106, 163,
  106, 164,
  106, 165,
  106, 167,
  106, 168,
  106, 171,
  106, 173,
  106, 174,
  106, 178,
  106, 182,
  106, 183,
  106, 184,
  106, 192,
  106, 193,
  106, 195,
  106, 196,
  106, 199,
  106, 202,
  106, 204,
  106, 205,
  106, 208,
  106, 211,
  106, 212,
  106, 215,
  106, 217,
  106, 219,
  106, 220,
  106, 222,
  106, 223,
  106, 225,
  106, 226,
  106, 228,
  106, 229,
  106, 233,
  106, 236,
  106, 237,
  106, 238,
  106, 239,
  106, 240,
  106, 241,
  106, 245,
  106, 246,
  106, 250,
  106, 251,
  106, 253,
  106, 256,
  106, 257,
  106, 260,
  106, 261,
  106, 263,
  106, 264,
  106, 265,
  106, 270,
  106, 271,
  106, 272,
  106, 276,
  106, 278,
  106, 279,
  106, 281,
  106, 288,
  106, 289,
  106, 290,
  106, 292,
  106, 294,
  106, 295,
  106, 298,
  106, 300,
  107, 109,
  107, 111,
  107, 114,
  107, 120,
  107, 121,
  107, 123,
  107, 124,
  107, 125,
  107, 126,
  107, 127,
  107, 133,
  107, 134,
  107, 135,
  107, 136,
  107, 138,
  107, 141,
  107, 148,
  107, 151,
  107, 154,
  107, 155,
  107, 158,
  107, 159,
  107, 160,
  107, 164,
  107, 165,
  107, 167,
  107, 168,
  107, 169,
  107, 171,
  107, 172,
  107, 178,
  107, 180,
  107, 182,
  107, 183,
  107, 184,
  107, 186,
  107, 188,
  107, 189,
  107, 192,
  107, 193,
  107, 194,
  107, 195,
  107, 198,
  107, 201,
  107, 203,
  107, 204,
  107, 206,
  107, 209,
  107, 211,
  107, 212,
  107, 220,
  107, 221,
  107, 223,
  107, 225,
  107, 227,
  107, 228,
  107, 229,
  107, 233,
  107, 234,
  107, 235,
  107, 238,
  107, 245,
  107, 247,
  107, 251,
  107, 254,
  107, 255,
  107, 256,
  107, 257,
  107, 260,
  107, 262,
  107, 267,
  107, 269,
  107, 271,
  107, 273,
  107, 275,
  107, 277,
  107, 280,
  107, 282,
  107, 283,
  107, 284,
  107, 291,
  107, 292,
  107, 294,
  107, 296,
  107, 299,
  108, 109,
  108, 110,
  108, 111,
  108, 113,
  108, 114,
  108, 115,
  108, 121,
  108, 122,
  108, 123,
  108, 125,
  108, 127,
  108, 131,
  108, 134,
  108, 135,
  108, 138,
  108, 140,
  108, 142,
  108, 143,
  108, 145,
  108, 146,
  108, 148,
  108, 151,
  108, 153,
  108, 154,
  108, 155,
  108, 156,
  108, 157,
  108, 158,
  108, 159,
  108, 162,
  108, 163,
  108, 167,
  108, 168,
  108, 171,
  108, 173,
  108, 174,
  108, 181,
  108, 182,
  108, 183,
  108, 184,
  108, 189,
  108, 193,
  108, 194,
  108, 195,
  108, 197,
  108, 198,
  108, 200,
  108, 201,
  108, 203,
  108, 204,
  108, 206,
  108, 207,
  108, 209,
  108, 211,
  108, 213,
  108, 214,
  108, 216,
  108, 217,
  108, 218,
  108, 220,
  108, 221,
  108, 222,
  108, 223,
  108, 224,
  108, 228,
  108, 229,
  108, 235,
  108, 237,
  108, 238,
  108, 240,
  108, 241,
  108, 242,
  108, 245,
  108, 247,
  108, 249,
  108, 254,
  108, 258,
  108, 263,
  108, 265,
  108, 267,
  108, 268,
  108, 270,
  108, 271,
  108, 276,
  108, 280,
  108, 285,
  108, 289,
  108, 290,
  108, 292,
  108, 293,
  108, 296,
  108, 299,
  108, 300,
  109, 111,
  109, 112,
  109, 114,
  109, 116,
  109, 117,
  109, 118,
  109, 119,
  109, 125,
  109, 126,
  109, 128,
  109, 129,
  109, 130,
  109, 133,
  109, 135,
  109, 139,
  109, 141,
  109, 143,
  109, 145,
  109, 148,
  109, 150,
  109, 151,
  109, 154,
  109, 156,
  109, 162,
  109, 163,
  109, 164,
  109, 167,
  109, 170,
  109, 171,
  109, 172,
  109, 175,
  109, 176,
  109, 177,
  109, 178,
  109, 179,
  109, 180,
  109, 182,
  109, 186,
  109, 187,
  109, 189,
  109, 192,
  109, 196,
  109, 201,
  109, 202,
  109, 206,
  109, 207,
  109, 209,
  109, 211,
  109, 214,
  109, 215,
  109, 218,
  109, 219,
  109, 220,
  109, 221,
  109, 222,
  109, 223,
  109, 224,
  109, 228,
  109, 230,
  109, 232,
  109, 233,
  109, 234,
  109, 236,
  109, 238,
  109, 239,
  109, 243,
  109, 245,
  109, 246,
  109, 247,
  109, 248,
  109, 249,
  109, 253,
  109, 255,
  109, 256,
  109, 257,
  109, 262,
  109, 263,
  109, 265,
  109, 267,
  109, 268,
  109, 270,
  109, 276,
  109, 277,
  109, 279,
  109, 280,
  109, 281,
  109, 283,
  109, 286,
  109, 287,
  109, 292,
  109, 293,
  109, 295,
  109, 298,
  109, 299,
  109, 300,
  110, 112,
  110, 117,
  110, 120,
  110, 123,
  110, 125,
  110, 126,
  110, 130,
  110, 131,
  110, 135,
  110, 138,
  110, 141,
  110, 142,
  110, 146,
  110, 148,
  110, 150,
  110, 152,
  110, 156,
  110, 161,
  110, 163,
  110, 164,
  110, 165,
  110, 171,
  110, 174,
  110, 177,
  110, 179,
  110, 180,
  110, 181,
  110, 184,
  110, 187,
  110, 189,
  110, 191,
  110, 194,
  110, 196,
  110, 198,
  110, 201,
  110, 202,
  110, 203,
  110, 204,
  110, 205,
  110, 207,
  110, 209,
  110, 211,
  110, 216,
  110, 217,
  110, 218,
  110, 219,
  110, 220,
  110, 221,
  110, 223,
  110, 224,
  110, 225,
  110, 226,
  110, 228,
  110, 229,
  110, 230,
  110, 233,
  110, 234,
  110, 236,
  110, 239,
  110, 240,
  110, 244,
  110, 245,
  110, 246,
  110, 250,
  110, 252,
  110, 253,
  110, 254,
  110, 255,
  110, 257,
  110, 260,
  110, 261,
  110, 262,
  110, 263,
  110, 265,
  110, 266,
  110, 267,
  110, 270,
  110, 272,
  110, 273,
  110, 274,
  110, 275,
  110, 277,
  110, 279,
  110, 281,
  110, 282,
  110, 284,
  110, 287,
  110, 293,
  110, 294,
  110, 296,
  110, 300,
  111, 112,
  111, 115,
  111, 116,
  111, 117,
  111, 118,
  111, 120,
  111, 123,
  111, 125,
  111, 127,
  111, 129,
  111, 130,
  111, 131,
  111, 132,
  111, 133,
  111, 135,
  111, 136,
  111, 139,
  111, 141,
  111, 143,
  111, 144,
  111, 145,
  111, 148,
  111, 149,
  111, 151,
  111, 152,
  111, 154,
  111, 158,
  111, 160,
  111, 162,
  111, 165,
  111, 166,
  111, 167,
  111, 168,
  111, 176,
  111, 177,
  111, 178,
  111, 179,
  111, 182,
  111, 185,
  111, 188,
  111, 189,
  111, 190,
  111, 191,
  111, 193,
  111, 196,
  111, 200,
  111, 202,
  111, 205,
  111, 206,
  111, 207,
  111, 208,
  111, 209,
  111, 212,
  111, 213,
  111, 214,
  111, 216,
  111, 217,
  111, 218,
  111, 219,
  111, 221,
  111, 222,
  111, 223,
  111, 224,
  111, 225,
  111, 226,
  111, 231,
  111, 233,
  111, 238,
  111, 242,
  111, 243,
  111, 244,
  111, 245,
  111, 246,
  111, 248,
  111, 250,
  111, 251,
  111, 255,
  111, 256,
  111, 257,
  111, 258,
  111, 259,
  111, 261,
  111, 262,
  111, 268,
  111, 269,
  111, 270,
  111, 272,
  111, 273,
  111, 274,
  111, 275,
  111, 278,
  111, 280,
  111, 282,
  111, 285,
  111, 289,
  111, 291,
  111, 294,
  111, 296,
  112, 113,
  112, 116,
  112, 119,
  112, 120,
  112, 122,
  112, 124,
  112, 127,
  112, 130,
  112, 131,
  112, 132,
  112, 133,
  112, 134,
  112, 135,
  112, 136,
  112, 139,
  112, 142,
  112, 143,
  112, 144,
  112, 146,
  112, 147,
  112, 148,
  112, 149,
  112, 154,
  112, 158,
  112, 161,
  112, 165,
  112, 166,
  112, 167,
  112, 168,
  112, 171,
  112, 173,
  112, 175,
  112, 176,
  112, 181,
  112, 183,
  112, 184,
  112, 185,
  112, 188,
  112, 189,
  112, 190,
  112, 191,
  112, 193,
  112, 194,
  112, 195,
  112, 200,
  112, 201,
  112, 204,
  112, 206,
  112, 207,
  112, 209,
  112, 212,
  112, 213,
  112, 214,
  112, 220,
  112, 222,
  112, 223,
  112, 224,
  112, 230,
  112, 231,
  112, 233,
  112, 238,
  112, 241,
  112, 242,
  112, 245,
  112, 247,
  112, 248,
  112, 250,
  112, 253,
  112, 255,
  112, 256,
  112, 258,
  112, 261,
  112, 262,
  112, 263,
  112, 264,
  112, 265,
  112, 266,
  112, 268,
  112, 269,
  112, 270,
  112, 272,
  112, 274,
  112, 275,
  112, 279,
  112, 280,
  112, 281,
  112, 282,
  112, 283,
  112, 284,
  112, 285,
  112, 290,
  112, 291,
  112, 292,
  112, 296,
  113, 115,
  113, 116,
  113, 118,
  113, 119,
  113, 121,
  113, 122,
  113, 123,
  113, 125,
  113, 126,
  113, 127,
  113, 128,
  113, 133,
  113, 135,
  113, 137,
  113, 139,
  113, 143,
  113, 146,
  113, 148,
  113, 149,
  113, 150,
  113, 152,
  113, 154,
  113, 155,
  113, 157,
  113, 159,
  113, 161,
  113, 162,
  113, 165,
  113, 166,
  113, 167,
  113, 168,
  113, 170,
  113, 173,
  113, 174,
  113, 176,
  113, 177,
  113, 179,
  113, 181,
  113, 183,
  113, 184,
  113, 187,
  113, 188,
  113, 189,
  113, 190,
  113, 191,
  113, 192,
  113, 193,
  113, 196,
  113, 197,
  113, 198,
  113, 199,
  113, 201,
  113, 202,
  113, 205,
  113, 206,
  113, 207,
  113, 209,
  113, 211,
  113, 213,
  113, 214,
  113, 215,
  113, 216,
  113, 220,
  113, 222,
  113, 223,
  113, 226,
  113, 229,
  113, 231,
  113, 232,
  113, 234,
  113, 235,
  113, 237,
  113, 240,
  113, 246,
  113, 248,
  113, 249,
  113, 250,
  113, 251,
  113, 252,
  113, 253,
  113, 255,
  113, 258,
  113, 260,
  113, 263,
  113, 264,
  113, 265,
  113, 268,
  113, 271,
  113, 272,
  113, 273,
  113, 274,
  113, 276,
  113, 277,
  113, 278,
  113, 279,
  113, 281,
  113, 282,
  113, 283,
  113, 284,
  113, 288,
  113, 289,
  113, 294,
  113, 295,
  113, 300,
  114, 118,
  114, 119,
  114, 120,
  114, 121,
  114, 122,
  114, 123,
  114, 128,
  114, 130,
  114, 131,
  114, 132,
  114, 134,
  114, 136,
  114, 137,
  114, 142,
  114, 143,
  114, 145,
  114, 149,
  114, 156,
  114, 157,
  114, 158,
  114, 159,
  114, 160,
  114, 164,
  114, 165,
  114, 167,
  114, 170,
  114, 174,
  114, 177,
  114, 184,
  114, 186,
  114, 189,
  114, 190,
  114, 192,
  114, 193,
  114, 195,
  114, 198,
  114, 202,
  114, 203,
  114, 206,
  114, 207,
  114, 208,
  114, 209,
  114, 211,
  114, 212,
  114, 215,
  114, 218,
  114, 219,
  114, 221,
  114, 222,
  114, 223,
  114, 224,
  114, 227,
  114, 229,
  114, 234,
  114, 235,
  114, 238,
  114, 239,
  114, 241,
  114, 242,
  114, 243,
  114, 244,
  114, 245,
  114, 246,
  114, 247,
  114, 248,
  114, 249,
  114, 252,
  114, 254,
  114, 255,
  114, 257,
  114, 263,
  114, 264,
  114, 270,
  114, 272,
  114, 276,
  114, 277,
  114, 281,
  114, 282,
  114, 283,
  114, 284,
  114, 286,
  114, 289,
  114, 293,
  114, 294,
  114, 296,
  114, 297,
  114, 299,
  115, 116,
  115, 118,
  115, 121,
  115, 122,
  115, 124,
  115, 126,
  115, 127,
  115, 128,
  115, 129,
  115, 133,
  115, 135,
  115, 137,
  115, 141,
  115, 143,
  115, 145,
  115, 146,
  115, 147,
  115, 149,
  115, 152,
  115, 153,
  115, 154,
  115, 155,
  115, 159,
  115, 160,
  115, 164,
  115, 166,
  115, 168,
  115, 169,
  115, 170,
  115, 171,
  115, 172,
  115, 176,
  115, 180,
  115, 181,
  115, 182,
  115, 183,
  115, 184,
  115, 185,
  115, 186,
  115, 190,
  115, 195,
  115, 199,
  115, 201,
  115, 203,
  115, 205,
  115, 207,
  115, 209,
  115, 213,
  115, 216,
  115, 218,
  115, 221,
  115, 223,
  115, 226,
  115, 227,
  115, 229,
  115, 230,
  115, 232,
  115, 233,
  115, 238,
  115, 240,
  115, 242,
  115, 245,
  115, 246,
  115, 249,
  115, 253,
  115, 256,
  115, 258,
  115, 260,
  115, 261,
  115, 262,
  115, 263,
  115, 267,
  115, 268,
  115, 271,
  115, 272,
  115, 276,
  115, 278,
  115, 279,
  115, 282,
  115, 283,
  115, 284,
  115, 285,
  115, 288,
  115, 292,
  115, 294,
  115, 295,
  115, 296,
  115, 297,
  115, 299,
  116, 120,
  116, 129,
  116, 130,
  116, 131,
  116, 134,
  116, 147,
  116, 148,
  116, 149,
  116, 152,
  116, 153,
  116, 154,
  116, 156,
  116, 157,
  116, 158,
  116, 159,
  116, 162,
  116, 164,
  116, 165,
  116, 166,
  116, 167,
  116, 171,
  116, 174,
  116, 176,
  116, 177,
  116, 178,
  116, 180,
  116, 181,
  116, 182,
  116, 184,
  116, 189,
  116, 191,
  116, 192,
  116, 194,
  116, 196,
  116, 199,
  116, 200,
  116, 201,
  116, 202,
  116, 204,
  116, 208,
  116, 215,
  116, 216,
  116, 218,
  116, 220,
  116, 221,
  116, 222,
  116, 224,
  116, 227,
  116, 228,
  116, 229,
  116, 230,
  116, 231,
  116, 234,
  116, 237,
  116, 238,
  116, 241,
  116, 243,
  116, 245,
  116, 248,
  116, 249,
  116, 250,
  116, 254,
  116, 257,
  116, 258,
  116, 259,
  116, 262,
  116, 264,
  116, 265,
  116, 266,
  116, 267,
  116, 268,
  116, 269,
  116, 270,
  116, 271,
  116, 272,
  116, 275,
  116, 277,
  116, 280,
  116, 281,
  116, 283,
  116, 285,
  116, 286,
  116, 290,
  116, 291,
  116, 293,
  116, 296,
  116, 298,
  116, 299,
  116, 300,
  117, 118,
  117, 119,
  117, 120,
  117, 122,
  117, 124,
  117, 125,
  117, 126,
  117, 127,
  117, 129,
  117, 130,
  117, 131,
  117, 132,
  117, 133,
  117, 136,
  117, 137,
  117, 138,
  117, 140,
  117, 142,
  117, 148,
  117, 152,
  117, 153,
  117, 154,
  117, 155,
  117, 162,
  117, 163,
  117, 164,
  117, 166,
  117, 167,
  117, 168,
  117, 170,
  117, 171,
  117, 172,
  117, 174,
  117, 175,
  117, 177,
  117, 178,
  117, 185,
  117, 188,
  117, 189,
  117, 190,
  117, 199,
  117, 201,
  117, 202,
  117, 203,
  117, 204,
  117, 208,
  117, 211,
  117, 213,
  117, 215,
  117, 216,
  117, 219,
  117, 221,
  117, 223,
  117, 224,
  117, 225,
  117, 226,
  117, 227,
  117, 228,
  117, 230,
  117, 231,
  117, 233,
  117, 234,
  117, 235,
  117, 242,
  117, 243,
  117, 244,
  117, 245,
  117, 249,
  117, 250,
  117, 252,
  117, 254,
  117, 257,
  117, 258,
  117, 260,
  117, 262,
  117, 263,
  117, 264,
  117, 265,
  117, 266,
  117, 267,
  117, 270,
  117, 271,
  117, 273,
  117, 274,
  117, 276,
  117, 277,
  117, 278,
  117, 281,
  117, 282,
  117, 283,
  117, 285,
  117, 287,
  117, 288,
  117, 290,
  117, 291,
  117, 293,
  117, 296,
  117, 297,
  117, 298,
  117, 300,
  118, 119,
  118, 120,
  118, 122,
  118, 125,
  118, 126,
  118, 127,
  118, 128,
  118, 129,
  118, 132,
  118, 135,
  118, 137,
  118, 138,
  118, 140,
  118, 142,
  118, 143,
  118, 147,
  118, 150,
  118, 151,
  118, 154,
  118, 161,
  118, 164,
  118, 166,
  118, 167,
  118, 172,
  118, 173,
  118, 175,
  118, 176,
  118, 179,
  118, 180,
  118, 183,
  118, 184,
  118, 185,
  118, 189,
  118, 190,
  118, 191,
  118, 192,
  118, 194,
  118, 198,
  118, 202,
  118, 204,
  118, 205,
  118, 206,
  118, 207,
  118, 208,
  118, 209,
  118, 210,
  118, 212,
  118, 216,
  118, 219,
  118, 220,
  118, 221,
  118, 222,
  118, 225,
  118, 226,
  118, 227,
  118, 229,
  118, 231,
  118, 232,
  118, 233,
  118, 236,
  118, 238,
  118, 240,
  118, 242,
  118, 243,
  118, 245,
  118, 246,
  118, 248,
  118, 249,
  118, 250,
  118, 252,
  118, 253,
  118, 254,
  118, 255,
  118, 256,
  118, 257,
  118, 259,
  118, 267,
  118, 268,
  118, 271,
  118, 274,
  118, 275,
  118, 278,
  118, 281,
  118, 284,
  118, 285,
  118, 287,
  118, 290,
  118, 291,
  118, 293,
  118, 294,
  118, 296,
  118, 297,
  118, 300,
  119, 122,
  119, 125,
  119, 126,
  119, 127,
  119, 130,
  119, 131,
  119, 133,
  119, 136,
  119, 137,
  119, 138,
  119, 140,
  119, 142,
  119, 143,
  119, 144,
  119, 146,
  119, 147,
  119, 148,
  119, 149,
  119, 150,
  119, 151,
  119, 153,
  119, 154,
  119, 155,
  119, 156,
  119, 157,
  119, 158,
  119, 159,
  119, 160,
  119, 161,
  119, 165,
  119, 166,
  119, 169,
  119, 170,
  119, 171,
  119, 174,
  119, 176,
  119, 178,
  119, 181,
  119, 182,
  119, 183,
  119, 184,
  119, 189,
  119, 191,
  119, 192,
  119, 195,
  119, 198,
  119, 199,
  119, 201,
  119, 202,
  119, 205,
  119, 208,
  119, 212,
  119, 213,
  119, 214,
  119, 216,
  119, 219,
  119, 221,
  119, 224,
  119, 226,
  119, 227,
  119, 230,
  119, 231,
  119, 232,
  119, 233,
  119, 235,
  119, 237,
  119, 244,
  119, 245,
  119, 246,
  119, 247,
  119, 248,
  119, 249,
  119, 250,
  119, 252,
  119, 255,
  119, 256,
  119, 259,
  119, 260,
  119, 262,
  119, 264,
  119, 265,
  119, 266,
  119, 268,
  119, 269,
  119, 272,
  119, 274,
  119, 277,
  119, 278,
  119, 279,
  119, 280,
  119, 284,
  119, 285,
  119, 286,
  119, 287,
  119, 290,
  119, 291,
  119, 292,
  119, 293,
  119, 295,
  119, 296,
  119, 298,
  119, 300,
  120, 121,
  120, 122,
  120, 127,
  120, 129,
  120, 132,
  120, 133,
  120, 137,
  120, 138,
  120, 140,
  120, 141,
  120, 146,
  120, 148,
  120, 149,
  120, 152,
  120, 155,
  120, 156,
  120, 157,
  120, 158,
  120, 160,
  120, 162,
  120, 163,
  120, 166,
  120, 167,
  120, 168,
  120, 169,
  120, 170,
  120, 173,
  120, 175,
  120, 176,
  120, 180,
  120, 186,
  120, 188,
  120, 190,
  120, 194,
  120, 197,
  120, 201,
  120, 202,
  120, 204,
  120, 205,
  120, 206,
  120, 207,
  120, 208,
  120, 213,
  120, 214,
  120, 216,
  120, 223,
  120, 229,
  120, 231,
  120, 234,
  120, 235,
  120, 238,
  120, 240,
  120, 241,
  120, 242,
  120, 243,
  120, 246,
  120, 248,
  120, 252,
  120, 254,
  120, 255,
  120, 259,
  120, 261,
  120, 262,
  120, 263,
  120, 264,
  120, 266,
  120, 267,
  120, 268,
  120, 269,
  120, 271,
  120, 272,
  120, 274,
  120, 276,
  120, 279,
  120, 281,
  120, 282,
  120, 283,
  120, 286,
  120, 290,
  120, 291,
  120, 292,
  120, 298,
  120, 299,
  120, 300,
  121, 126,
  121, 129,
  121, 133,
  121, 137,
  121, 138,
  121, 140,
  121, 141,
  121, 143,
  121, 145,
  121, 150,
  121, 153,
  121, 155,
  121, 156,
  121, 157,
  121, 162,
  121, 163,
  121, 164,
  121, 166,
  121, 169,
  121, 170,
  121, 171,
  121, 173,
  121, 175,
  121, 176,
  121, 178,
  121, 180,
  121, 185,
  121, 186,
  121, 189,
  121, 191,
  121, 196,
  121, 197,
  121, 198,
  121, 204,
  121, 205,
  121, 206,
  121, 207,
  121, 208,
  121, 210,
  121, 213,
  121, 214,
  121, 215,
  121, 219,
  121, 220,
  121, 222,
  121, 223,
  121, 225,
  121, 226,
  121, 227,
  121, 229,
  121, 231,
  121, 232,
  121, 233,
  121, 234,
  121, 235,
  121, 236,
  121, 237,
  121, 238,
  121, 243,
  121, 247,
  121, 248,
  121, 249,
  121, 252,
  121, 256,
  121, 257,
  121, 258,
  121, 262,
  121, 263,
  121, 264,
  121, 265,
  121, 267,
  121, 268,
  121, 269,
  121, 271,
  121, 272,
  121, 273,
  121, 274,
  121, 275,
  121, 278,
  121, 281,
  121, 282,
  121, 283,
  121, 284,
  121, 285,
  121, 286,
  121, 287,
  121, 289,
  121, 290,
  121, 292,
  121, 295,
  121, 296,
  121, 298,
  122, 126,
  122, 128,
  122, 130,
  122, 131,
  122, 132,
  122, 136,
  122, 137,
  122, 141,
  122, 144,
  122, 145,
  122, 146,
  122, 147,
  122, 148,
  122, 150,
  122, 152,
  122, 155,
  122, 156,
  122, 158,
  122, 162,
  122, 165,
  122, 166,
  122, 171,
  122, 173,
  122, 175,
  122, 176,
  122, 179,
  122, 180,
  122, 182,
  122, 183,
  122, 184,
  122, 185,
  122, 191,
  122, 192,
  122, 194,
  122, 196,
  122, 197,
  122, 202,
  122, 203,
  122, 204,
  122, 205,
  122, 208,
  122, 211,
  122, 215,
  122, 216,
  122, 217,
  122, 219,
  122, 221,
  122, 222,
  122, 223,
  122, 225,
  122, 226,
  122, 227,
  122, 228,
  122, 229,
  122, 230,
  122, 233,
  122, 234,
  122, 235,
  122, 238,
  122, 241,
  122, 243,
  122, 244,
  122, 245,
  122, 249,
  122, 250,
  122, 254,
  122, 256,
  122, 259,
  122, 260,
  122, 261,
  122, 262,
  122, 263,
  122, 267,
  122, 268,
  122, 270,
  122, 272,
  122, 274,
  122, 276,
  122, 277,
  122, 278,
  122, 279,
  122, 280,
  122, 284,
  122, 285,
  122, 289,
  122, 290,
  122, 291,
  122, 292,
  122, 293,
  122, 295,
  122, 296,
  122, 298,
  122, 300,
  123, 124,
  123, 125,
  123, 126,
  123, 127,
  123, 128,
  123, 130,
  123, 131,
  123, 134,
  123, 136,
  123, 139,
  123, 140,
  123, 143,
  123, 144,
  123, 148,
  123, 149,
  123, 151,
  123, 153,
  123, 154,
  123, 155,
  123, 156,
  123, 159,
  123, 160,
  123, 161,
  123, 162,
  123, 165,
  123, 167,
  123, 168,
  123, 171,
  123, 173,
  123, 175,
  123, 176,
  123, 179,
  123, 180,
  123, 183,
  123, 184,
  123, 185,
  123, 186,
  123, 190,
  123, 195,
  123, 196,
  123, 200,
  123, 204,
  123, 205,
  123, 211,
  123, 214,
  123, 215,
  123, 216,
  123, 219,
  123, 220,
  123, 221,
  123, 222,
  123, 223,
  123, 225,
  123, 226,
  123, 229,
  123, 230,
  123, 231,
  123, 234,
  123, 236,
  123, 237,
  123, 239,
  123, 240,
  123, 248,
  123, 250,
  123, 251,
  123, 253,
  123, 254,
  123, 255,
  123, 256,
  123, 259,
  123, 263,
  123, 265,
  123, 266,
  123, 267,
  123, 270,
  123, 271,
  123, 272,
  123, 276,
  123, 277,
  123, 280,
  123, 281,
  123, 283,
  123, 285,
  123, 288,
  123, 291,
  123, 294,
  123, 295,
  123, 296,
  123, 298,
  124, 125,
  124, 126,
  124, 127,
  124, 129,
  124, 131,
  124, 132,
  124, 136,
  124, 137,
  124, 138,
  124, 140,
  124, 141,
  124, 142,
  124, 143,
  124, 144,
  124, 146,
  124, 147,
  124, 148,
  124, 151,
  124, 154,
  124, 155,
  124, 157,
  124, 158,
  124, 160,
  124, 162,
  124, 164,
  124, 165,
  124, 166,
  124, 170,
  124, 173,
  124, 174,
  124, 175,
  124, 176,
  124, 178,
  124, 182,
  124, 185,
  124, 186,
  124, 187,
  124, 190,
  124, 191,
  124, 193,
  124, 195,
  124, 197,
  124, 198,
  124, 199,
  124, 202,
  124, 204,
  124, 205,
  124, 207,
  124, 208,
  124, 209,
  124, 212,
  124, 214,
  124, 215,
  124, 218,
  124, 219,
  124, 220,
  124, 221,
  124, 222,
  124, 223,
  124, 226,
  124, 228,
  124, 230,
  124, 231,
  124, 235,
  124, 236,
  124, 237,
  124, 238,
  124, 239,
  124, 240,
  124, 241,
  124, 243,
  124, 245,
  124, 250,
  124, 252,
  124, 253,
  124, 254,
  124, 256,
  124, 257,
  124, 258,
  124, 259,
  124, 260,
  124, 262,
  124, 263,
  124, 265,
  124, 267,
  124, 271,
  124, 273,
  124, 276,
  124, 278,
  124, 279,
  124, 282,
  124, 283,
  124, 284,
  124, 286,
  124, 287,
  124, 289,
  124, 291,
  124, 293,
  124, 294,
  124, 296,
  124, 297,
  124, 298,
  124, 299,
  125, 126,
  125, 128,
  125, 130,
  125, 131,
  125, 133,
  125, 138,
  125, 140,
  125, 144,
  125, 145,
  125, 146,
  125, 147,
  125, 148,
  125, 150,
  125, 151,
  125, 153,
  125, 154,
  125, 158,
  125, 159,
  125, 161,
  125, 162,
  125, 167,
  125, 168,
  125, 172,
  125, 179,
  125, 180,
  125, 181,
  125, 182,
  125, 185,
  125, 187,
  125, 188,
  125, 190,
  125, 191,
  125, 192,
  125, 198,
  125, 199,
  125, 201,
  125, 202,
  125, 203,
  125, 208,
  125, 210,
  125, 213,
  125, 214,
  125, 215,
  125, 218,
  125, 221,
  125, 222,
  125, 224,
  125, 225,
  125, 227,
  125, 228,
  125, 229,
  125, 230,
  125, 235,
  125, 236,
  125, 237,
  125, 238,
  125, 241,
  125, 242,
  125, 245,
  125, 246,
  125, 248,
  125, 251,
  125, 252,
  125, 253,
  125, 254,
  125, 255,
  125, 257,
  125, 263,
  125, 265,
  125, 268,
  125, 270,
  125, 271,
  125, 273,
  125, 274,
  125, 275,
  125, 276,
  125, 277,
  125, 279,
  125, 280,
  125, 281,
  125, 282,
  125, 283,
  125, 284,
  125, 291,
  125, 293,
  125, 299,
  126, 127,
  126, 129,
  126, 130,
  126, 132,
  126, 133,
  126, 134,
  126, 136,
  126, 137,
  126, 142,
  126, 145,
  126, 146,
  126, 147,
  126, 148,
  126, 149,
  126, 150,
  126, 153,
  126, 154,
  126, 155,
  126, 156,
  126, 157,
  126, 160,
  126, 161,
  126, 162,
  126, 164,
  126, 166,
  126, 167,
  126, 169,
  126, 171,
  126, 173,
  126, 174,
  126, 175,
  126, 177,
  126, 180,
  126, 181,
  126, 182,
  126, 185,
  126, 189,
  126, 190,
  126, 192,
  126, 194,
  126, 195,
  126, 196,
  126, 199,
  126, 200,
  126, 201,
  126, 202,
  126, 204,
  126, 207,
  126, 209,
  126, 210,
  126, 211,
  126, 212,
  126, 214,
  126, 215,
  126, 216,
  126, 218,
  126, 221,
  126, 222,
  126, 223,
  126, 224,
  126, 226,
  126, 227,
  126, 233,
  126, 235,
  126, 236,
  126, 242,
  126, 247,
  126, 251,
  126, 252,
  126, 254,
  126, 257,
  126, 258,
  126, 260,
  126, 265,
  126, 267,
  126, 269,
  126, 272,
  126, 273,
  126, 277,
  126, 278,
  126, 279,
  126, 283,
  126, 284,
  126, 285,
  126, 287,
  126, 290,
  126, 291,
  126, 294,
  126, 295,
  126, 296,
  126, 297,
  126, 299,
  126, 300,
  127, 129,
  127, 130,
  127, 133,
  127, 136,
  127, 138,
  127, 139,
  127, 141,
  127, 142,
  127, 145,
  127, 146,
  127, 148,
  127, 150,
  127, 151,
  127, 153,
  127, 154,
  127, 158,
  127, 159,
  127, 162,
  127, 163,
  127, 164,
  127, 169,
  127, 172,
  127, 175,
  127, 176,
  127, 191,
  127, 194,
  127, 195,
  127, 196,
  127, 197,
  127, 198,
  127, 199,
  127, 200,
  127, 205,
  127, 207,
  127, 210,
  127, 212,
  127, 214,
  127, 215,
  127, 218,
  127, 220,
  127, 222,
  127, 224,
  127, 228,
  127, 229,
  127, 230,
  127, 231,
  127, 233,
  127, 237,
  127, 241,
  127, 244,
  127, 246,
  127, 247,
  127, 248,
  127, 249,
  127, 252,
  127, 253,
  127, 254,
  127, 255,
  127, 256,
  127, 257,
  127, 258,
  127, 262,
  127, 263,
  127, 265,
  127, 269,
  127, 270,
  127, 271,
  127, 273,
  127, 274,
  127, 276,
  127, 277,
  127, 278,
  127, 281,
  127, 284,
  127, 287,
  127, 290,
  127, 292,
  127, 293,
  127, 295,
  127, 297,
  127, 298,
  128, 130,
  128, 131,
  128, 133,
  128, 135,
  128, 142,
  128, 143,
  128, 145,
  128, 148,
  128, 152,
  128, 155,
  128, 156,
  128, 158,
  128, 160,
  128, 161,
  128, 162,
  128, 164,
  128, 165,
  128, 167,
  128, 168,
  128, 169,
  128, 170,
  128, 171,
  128, 172,
  128, 176,
  128, 177,
  128, 178,
  128, 180,
  128, 187,
  128, 188,
  128, 189,
  128, 190,
  128, 191,
  128, 196,
  128, 197,
  128, 198,
  128, 200,
  128, 202,
  128, 203,
  128, 207,
  128, 209,
  128, 211,
  128, 214,
  128, 215,
  128, 217,
  128, 225,
  128, 228,
  128, 229,
  128, 230,
  128, 231,
  128, 232,
  128, 235,
  128, 238,
  128, 241,
  128, 242,
  128, 243,
  128, 247,
  128, 248,
  128, 249,
  128, 254,
  128, 257,
  128, 262,
  128, 265,
  128, 266,
  128, 267,
  128, 268,
  128, 273,
  128, 277,
  128, 278,
  128, 279,
  128, 280,
  128, 281,
  128, 282,
  128, 284,
  128, 285,
  128, 288,
  128, 290,
  128, 291,
  128, 292,
  128, 293,
  128, 294,
  128, 295,
  128, 296,
  128, 299,
  128, 300,
  129, 131,
  129, 133,
  129, 134,
  129, 138,
  129, 141,
  129, 142,
  129, 143,
  129, 146,
  129, 148,
  129, 149,
  129, 153,
  129, 161,
  129, 162,
  129, 163,
  129, 164,
  129, 166,
  129, 167,
  129, 168,
  129, 170,
  129, 171,
  129, 172,
  129, 174,
  129, 175,
  129, 177,
  129, 179,
  129, 180,
  129, 185,
  129, 186,
  129, 188,
  129, 189,
  129, 190,
  129, 193,
  129, 194,
  129, 198,
  129, 201,
  129, 202,
  129, 204,
  129, 207,
  129, 211,
  129, 212,
  129, 213,
  129, 219,
  129, 222,
  129, 224,
  129, 225,
  129, 229,
  129, 230,
  129, 235,
  129, 237,
  129, 239,
  129, 240,
  129, 243,
  129, 245,
  129, 246,
  129, 250,
  129, 252,
  129, 255,
  129, 256,
  129, 257,
  129, 261,
  129, 262,
  129, 263,
  129, 264,
  129, 265,
  129, 269,
  129, 272,
  129, 274,
  129, 275,
  129, 277,
  129, 278,
  129, 279,
  129, 281,
  129, 283,
  129, 285,
  129, 286,
  129, 288,
  129, 290,
  129, 291,
  129, 292,
  129, 294,
  129, 295,
  129, 296,
  129, 298,
  129, 299,
  129, 300,
  130, 131,
  130, 132,
  130, 134,
  130, 135,
  130, 137,
  130, 138,
  130, 143,
  130, 145,
  130, 146,
  130, 148,
  130, 149,
  130, 153,
  130, 154,
  130, 155,
  130, 156,
  130, 162,
  130, 163,
  130, 167,
  130, 169,
  130, 170,
  130, 171,
  130, 173,
  130, 174,
  130, 175,
  130, 177,
  130, 179,
  130, 180,
  130, 181,
  130, 184,
  130, 186,
  130, 189,
  130, 191,
  130, 192,
  130, 195,
  130, 198,
  130, 201,
  130, 202,
  130, 203,
  130, 207,
  130, 214,
  130, 215,
  130, 218,
  130, 220,
  130, 226,
  130, 227,
  130, 228,
  130, 229,
  130, 230,
  130, 231,
  130, 238,
  130, 239,
  130, 240,
  130, 243,
  130, 245,
  130, 248,
  130, 251,
  130, 253,
  130, 254,
  130, 255,
  130, 256,
  130, 259,
  130, 261,
  130, 262,
  130, 263,
  130, 265,
  130, 266,
  130, 267,
  130, 268,
  130, 269,
  130, 270,
  130, 272,
  130, 273,
  130, 276,
  130, 277,
  130, 278,
  130, 280,
  130, 282,
  130, 287,
  130, 289,
  130, 290,
  130, 292,
  130, 293,
  130, 295,
  130, 297,
  130, 299,
  131, 133,
  131, 135,
  131, 139,
  131, 141,
  131, 142,
  131, 144,
  131, 147,
  131, 150,
  131, 157,
  131, 164,
  131, 170,
  131, 171,
  131, 173,
  131, 174,
  131, 178,
  131, 180,
  131, 181,
  131, 184,
  131, 185,
  131, 193,
  131, 197,
  131, 198,
  131, 199,
  131, 200,
  131, 202,
  131, 206,
  131, 208,
  131, 210,
  131, 215,
  131, 218,
  131, 220,
  131, 222,
  131, 223,
  131, 224,
  131, 225,
  131, 226,
  131, 227,
  131, 233,
  131, 236,
  131, 238,
  131, 239,
  131, 243,
  131, 244,
  131, 245,
  131, 247,
  131, 249,
  131, 250,
  131, 251,
  131, 252,
  131, 253,
  131, 254,
  131, 255,
  131, 257,
  131, 259,
  131, 261,
  131, 262,
  131, 263,
  131, 264,
  131, 268,
  131, 269,
  131, 275,
  131, 276,
  131, 277,
  131, 278,
  131, 281,
  131, 282,
  131, 286,
  131, 287,
  131, 288,
  131, 290,
  131, 291,
  131, 294,
  131, 295,
  131, 296,
  131, 297,
  131, 299,
  132, 135,
  132, 138,
  132, 140,
  132, 142,
  132, 143,
  132, 144,
  132, 146,
  132, 149,
  132, 150,
  132, 151,
  132, 154,
  132, 156,
  132, 158,
  132, 160,
  132, 164,
  132, 165,
  132, 171,
  132, 173,
  132, 174,
  132, 177,
  132, 182,
  132, 183,
  132, 185,
  132, 187,
  132, 189,
  132, 190,
  132, 199,
  132, 201,
  132, 202,
  132, 204,
  132, 205,
  132, 206,
  132, 207,
  132, 208,
  132, 209,
  132, 210,
  132, 211,
  132, 218,
  132, 220,
  132, 221,
  132, 222,
  132, 227,
  132, 229,
  132, 233,
  132, 234,
  132, 239,
  132, 242,
  132, 243,
  132, 245,
  132, 247,
  132, 249,
  132, 250,
  132, 251,
  132, 255,
  132, 257,
  132, 258,
  132, 259,
  132, 260,
  132, 261,
  132, 263,
  132, 264,
  132, 268,
  132, 269,
  132, 273,
  132, 274,
  132, 278,
  132, 280,
  132, 283,
  132, 285,
  132, 288,
  132, 290,
  132, 292,
  132, 295,
  132, 297,
  133, 135,
  133, 137,
  133, 139,
  133, 142,
  133, 143,
  133, 144,
  133, 145,
  133, 149,
  133, 150,
  133, 152,
  133, 153,
  133, 154,
  133, 155,
  133, 157,
  133, 159,
  133, 160,
  133, 162,
  133, 163,
  133, 164,
  133, 165,
  133, 166,
  133, 167,
  133, 175,
  133, 176,
  133, 178,
  133, 179,
  133, 181,
  133, 182,
  133, 183,
  133, 184,
  133, 186,
  133, 190,
  133, 191,
  133, 197,
  133, 198,
  133, 199,
  133, 202,
  133, 204,
  133, 205,
  133, 206,
  133, 207,
  133, 210,
  133, 211,
  133, 212,
  133, 213,
  133, 215,
  133, 216,
  133, 217,
  133, 218,
  133, 221,
  133, 227,
  133, 229,
  133, 231,
  133, 232,
  133, 234,
  133, 235,
  133, 237,
  133, 238,
  133, 239,
  133, 240,
  133, 241,
  133, 244,
  133, 247,
  133, 248,
  133, 250,
  133, 251,
  133, 252,
  133, 257,
  133, 258,
  133, 259,
  133, 265,
  133, 269,
  133, 270,
  133, 272,
  133, 278,
  133, 279,
  133, 282,
  133, 283,
  133, 284,
  133, 285,
  133, 288,
  133, 290,
  133, 291,
  133, 292,
  133, 294,
  133, 295,
  133, 298,
  134, 136,
  134, 139,
  134, 142,
  134, 143,
  134, 145,
  134, 148,
  134, 150,
  134, 151,
  134, 152,
  134, 153,
  134, 154,
  134, 155,
  134, 158,
  134, 162,
  134, 163,
  134, 164,
  134, 166,
  134, 167,
  134, 169,
  134, 170,
  134, 171,
  134, 172,
  134, 173,
  134, 174,
  134, 177,
  134, 179,
  134, 180,
  134, 181,
  134, 183,
  134, 184,
  134, 189,
  134, 192,
  134, 193,
  134, 195,
  134, 198,
  134, 200,
  134, 202,
  134, 203,
  134, 205,
  134, 206,
  134, 207,
  134, 211,
  134, 212,
  134, 213,
  134, 215,
  134, 216,
  134, 226,
  134, 227,
  134, 229,
  134, 231,
  134, 232,
  134, 233,
  134, 237,
  134, 240,
  134, 242,
  134, 243,
  134, 244,
  134, 248,
  134, 250,
  134, 251,
  134, 255,
  134, 259,
  134, 261,
  134, 262,
  134, 263,
  134, 264,
  134, 266,
  134, 268,
  134, 272,
  134, 274,
  134, 277,
  134, 279,
  134, 280,
  134, 283,
  134, 286,
  134, 287,
  134, 289,
  134, 292,
  134, 294,
  134, 295,
  134, 297,
  134, 298,
  134, 299,
  135, 136,
  135, 137,
  135, 138,
  135, 139,
  135, 141,
  135, 142,
  135, 146,
  135, 149,
  135, 150,
  135, 153,
  135, 156,
  135, 159,
  135, 167,
  135, 168,
  135, 172,
  135, 173,
  135, 174,
  135, 176,
  135, 177,
  135, 178,
  135, 179,
  135, 183,
  135, 184,
  135, 191,
  135, 192,
  135, 194,
  135, 196,
  135, 198,
  135, 201,
  135, 202,
  135, 203,
  135, 204,
  135, 205,
  135, 207,
  135, 208,
  135, 210,
  135, 211,
  135, 214,
  135, 217,
  135, 218,
  135, 221,
  135, 223,
  135, 227,
  135, 231,
  135, 233,
  135, 235,
  135, 238,
  135, 239,
  135, 240,
  135, 242,
  135, 245,
  135, 249,
  135, 252,
  135, 255,
  135, 257,
  135, 258,
  135, 259,
  135, 260,
  135, 262,
  135, 263,
  135, 267,
  135, 269,
  135, 271,
  135, 276,
  135, 277,
  135, 282,
  135, 283,
  135, 284,
  135, 286,
  135, 289,
  135, 290,
  135, 295,
  136, 138,
  136, 140,
  136, 142,
  136, 144,
  136, 145,
  136, 146,
  136, 149,
  136, 151,
  136, 152,
  136, 153,
  136, 154,
  136, 158,
  136, 159,
  136, 161,
  136, 162,
  136, 163,
  136, 165,
  136, 167,
  136, 171,
  136, 173,
  136, 176,
  136, 177,
  136, 179,
  136, 180,
  136, 181,
  136, 182,
  136, 183,
  136, 184,
  136, 186,
  136, 187,
  136, 188,
  136, 191,
  136, 192,
  136, 193,
  136, 195,
  136, 196,
  136, 199,
  136, 200,
  136, 201,
  136, 202,
  136, 203,
  136, 204,
  136, 207,
  136, 210,
  136, 214,
  136, 215,
  136, 218,
  136, 219,
  136, 220,
  136, 223,
  136, 225,
  136, 229,
  136, 232,
  136, 234,
  136, 238,
  136, 239,
  136, 241,
  136, 242,
  136, 246,
  136, 247,
  136, 253,
  136, 254,
  136, 255,
  136, 258,
  136, 261,
  136, 262,
  136, 263,
  136, 265,
  136, 267,
  136, 268,
  136, 269,
  136, 272,
  136, 277,
  136, 278,
  136, 279,
  136, 280,
  136, 281,
  136, 282,
  136, 283,
  136, 285,
  136, 286,
  136, 287,
  136, 288,
  136, 289,
  136, 290,
  136, 291,
  136, 292,
  136, 293,
  136, 294,
  136, 295,
  136, 298,
  136, 299,
  136, 300,
  137, 139,
  137, 140,
  137, 141,
  137, 144,
  137, 145,
  137, 148,
  137, 151,
  137, 152,
  137, 153,
  137, 155,
  137, 158,
  137, 159,
  137, 163,
  137, 164,
  137, 168,
  137, 169,
  137, 171,
  137, 172,
  137, 175,
  137, 176,
  137, 178,
  137, 180,
  137, 183,
  137, 188,
  137, 190,
  137, 191,
  137, 193,
  137, 194,
  137, 196,
  137, 197,
  137, 199,
  137, 200,
  137, 201,
  137, 203,
  137, 205,
  137, 206,
  137, 211,
  137, 212,
  137, 213,
  137, 214,
  137, 217,
  137, 218,
  137, 220,
  137, 226,
  137, 229,
  137, 234,
  137, 236,
  137, 237,
  137, 238,
  137, 241,
  137, 243,
  137, 245,
  137, 246,
  137, 249,
  137, 250,
  137, 251,
  137, 254,
  137, 255,
  137, 256,
  137, 260,
  137, 261,
  137, 265,
  137, 266,
  137, 267,
  137, 268,
  137, 269,
  137, 271,
  137, 276,
  137, 282,
  137, 283,
  137, 285,
  137, 287,
  137, 288,
  137, 289,
  137, 291,
  137, 294,
  137, 295,
  137, 297,
  137, 300,
  138, 140,
  138, 141,
  138, 142,
  138, 143,
  138, 150,
  138, 151,
  138, 152,
  138, 153,
  138, 154,
  138, 158,
  138, 162,
  138, 163,
  138, 167,
  138, 169,
  138, 170,
  138, 172,
  138, 174,
  138, 179,
  138, 180,
  138, 182,
  138, 184,
  138, 185,
  138, 186,
  138, 187,
  138, 188,
  138, 189,
  138, 190,
  138, 191,
  138, 192,
  138, 193,
  138, 194,
  138, 198,
  138, 200,
  138, 203,
  138, 204,
  138, 209,
  138, 212,
  138, 213,
  138, 216,
  138, 217,
  138, 220,
  138, 221,
  138, 222,
  138, 224,
  138, 225,
  138, 227,
  138, 228,
  138, 230,
  138, 233,
  138, 234,
  138, 236,
  138, 242,
  138, 247,
  138, 249,
  138, 252,
  138, 256,
  138, 258,
  138, 260,
  138, 261,
  138, 262,
  138, 264,
  138, 268,
  138, 269,
  138, 270,
  138, 272,
  138, 276,
  138, 277,
  138, 278,
  138, 281,
  138, 286,
  138, 288,
  138, 290,
  138, 292,
  138, 293,
  138, 294,
  138, 295,
  138, 297,
  138, 298,
  138, 299,
  138, 300,
  139, 140,
  139, 142,
  139, 144,
  139, 145,
  139, 146,
  139, 149,
  139, 150,
  139, 152,
  139, 155,
  139, 156,
  139, 158,
  139, 162,
  139, 163,
  139, 165,
  139, 166,
  139, 167,
  139, 168,
  139, 171,
  139, 172,
  139, 173,
  139, 175,
  139, 178,
  139, 179,
  139, 181,
  139, 182,
  139, 183,
  139, 185,
  139, 186,
  139, 188,
  139, 189,
  139, 193,
  139, 195,
  139, 198,
  139, 199,
  139, 200,
  139, 206,
  139, 207,
  139, 211,
  139, 212,
  139, 215,
  139, 216,
  139, 217,
  139, 221,
  139, 226,
  139, 227,
  139, 228,
  139, 229,
  139, 230,
  139, 231,
  139, 233,
  139, 235,
  139, 243,
  139, 245,
  139, 247,
  139, 248,
  139, 250,
  139, 252,
  139, 254,
  139, 255,
  139, 256,
  139, 257,
  139, 261,
  139, 262,
  139, 266,
  139, 267,
  139, 273,
  139, 274,
  139, 275,
  139, 276,
  139, 277,
  139, 280,
  139, 281,
  139, 283,
  139, 285,
  139, 286,
  139, 287,
  139, 288,
  139, 289,
  139, 290,
  139, 297,
  139, 298,
  139, 300,
  140, 141,
  140, 142,
  140, 144,
  140, 145,
  140, 146,
  140, 152,
  140, 153,
  140, 154,
  140, 155,
  140, 156,
  140, 158,
  140, 160,
  140, 161,
  140, 162,
  140, 163,
  140, 165,
  140, 166,
  140, 167,
  140, 169,
  140, 170,
  140, 171,
  140, 172,
  140, 173,
  140, 177,
  140, 184,
  140, 187,
  140, 188,
  140, 189,
  140, 190,
  140, 192,
  140, 195,
  140, 197,
  140, 198,
  140, 202,
  140, 204,
  140, 205,
  140, 207,
  140, 208,
  140, 210,
  140, 211,
  140, 212,
  140, 213,
  140, 214,
  140, 215,
  140, 218,
  140, 219,
  140, 220,
  140, 221,
  140, 222,
  140, 223,
  140, 224,
  140, 226,
  140, 227,
  140, 228,
  140, 232,
  140, 234,
  140, 235,
  140, 238,
  140, 239,
  140, 240,
  140, 241,
  140, 242,
  140, 244,
  140, 245,
  140, 246,
  140, 248,
  140, 249,
  140, 250,
  140, 253,
  140, 254,
  140, 256,
  140, 259,
  140, 260,
  140, 261,
  140, 263,
  140, 266,
  140, 267,
  140, 268,
  140, 273,
  140, 276,
  140, 277,
  140, 278,
  140, 279,
  140, 280,
  140, 281,
  140, 286,
  140, 287,
  140, 288,
  140, 289,
  140, 290,
  140, 291,
  140, 292,
  140, 294,
  140, 295,
  140, 298,
  140, 299,
  140, 300,
  141, 148,
  141, 149,
  141, 150,
  141, 152,
  141, 154,
  141, 156,
  141, 159,
  141, 160,
  141, 163,
  141, 165,
  141, 167,
  141, 173,
  141, 175,
  141, 176,
  141, 177,
  141, 179,
  141, 180,
  141, 182,
  141, 186,
  141, 188,
  141, 189,
  141, 193,
  141, 194,
  141, 195,
  141, 199,
  141, 203,
  141, 205,
  141, 206,
  141, 208,
  141, 211,
  141, 212,
  141, 213,
  141, 214,
  141, 216,
  141, 220,
  141, 221,
  141, 222,
  141, 224,
  141, 225,
  141, 228,
  141, 231,
  141, 232,
  141, 233,
  141, 234,
  141, 236,
  141, 237,
  141, 238,
  141, 241,
  141, 242,
  141, 243,
  141, 249,
  141, 250,
  141, 252,
  141, 253,
  141, 254,
  141, 255,
  141, 256,
  141, 260,
  141, 261,
  141, 262,
  141, 263,
  141, 266,
  141, 269,
  141, 273,
  141, 274,
  141, 277,
  141, 278,
  141, 279,
  141, 280,
  141, 281,
  141, 283,
  141, 287,
  141, 291,
  141, 294,
  141, 295,
  141, 298,
  141, 300,
  142, 143,
  142, 144,
  142, 145,
  142, 146,
  142, 147,
  142, 149,
  142, 151,
  142, 152,
  142, 153,
  142, 154,
  142, 156,
  142, 157,
  142, 158,
  142, 159,
  142, 160,
  142, 161,
  142, 164,
  142, 165,
  142, 168,
  142, 169,
  142, 173,
  142, 175,
  142, 178,
  142, 180,
  142, 187,
  142, 189,
  142, 191,
  142, 192,
  142, 195,
  142, 196,
  142, 204,
  142, 205,
  142, 209,
  142, 210,
  142, 211,
  142, 213,
  142, 217,
  142, 218,
  142, 219,
  142, 220,
  142, 221,
  142, 222,
  142, 223,
  142, 225,
  142, 228,
  142, 230,
  142, 231,
  142, 232,
  142, 233,
  142, 234,
  142, 238,
  142, 241,
  142, 244,
  142, 245,
  142, 246,
  142, 247,
  142, 248,
  142, 253,
  142, 254,
  142, 256,
  142, 258,
  142, 261,
  142, 265,
  142, 268,
  142, 270,
  142, 271,
  142, 273,
  142, 274,
  142, 277,
  142, 278,
  142, 284,
  142, 286,
  142, 287,
  142, 290,
  142, 292,
  142, 295,
  142, 296,
  142, 297,
  142, 298,
  142, 299,
  143, 144,
  143, 145,
  143, 146,
  143, 147,
  143, 150,
  143, 153,
  143, 154,
  143, 157,
  143, 159,
  143, 163,
  143, 166,
  143, 170,
  143, 173,
  143, 175,
  143, 176,
  143, 177,
  143, 180,
  143, 182,
  143, 189,
  143, 190,
  143, 193,
  143, 194,
  143, 199,
  143, 200,
  143, 201,
  143, 202,
  143, 204,
  143, 206,
  143, 209,
  143, 212,
  143, 214,
  143, 215,
  143, 217,
  143, 220,
  143, 221,
  143, 229,
  143, 235,
  143, 238,
  143, 239,
  143, 241,
  143, 242,
  143, 243,
  143, 245,
  143, 246,
  143, 251,
  143, 253,
  143, 256,
  143, 260,
  143, 261,
  143, 262,
  143, 263,
  143, 266,
  143, 268,
  143, 269,
  143, 273,
  143, 274,
  143, 275,
  143, 278,
  143, 284,
  143, 286,
  143, 290,
  143, 291,
  143, 293,
  143, 294,
  143, 295,
  143, 299,
  144, 145,
  144, 146,
  144, 148,
  144, 149,
  144, 151,
  144, 153,
  144, 154,
  144, 155,
  144, 156,
  144, 158,
  144, 159,
  144, 160,
  144, 162,
  144, 164,
  144, 165,
  144, 166,
  144, 167,
  144, 168,
  144, 171,
  144, 172,
  144, 174,
  144, 175,
  144, 176,
  144, 178,
  144, 182,
  144, 185,
  144, 187,
  144, 188,
  144, 190,
  144, 191,
  144, 192,
  144, 196,
  144, 199,
  144, 200,
  144, 201,
  144, 202,
  144, 205,
  144, 206,
  144, 208,
  144, 213,
  144, 214,
  144, 216,
  144, 219,
  144, 220,
  144, 221,
  144, 222,
  144, 223,
  144, 227,
  144, 228,
  144, 230,
  144, 238,
  144, 241,
  144, 242,
  144, 243,
  144, 247,
  144, 249,
  144, 252,
  144, 253,
  144, 254,
  144, 256,
  144, 257,
  144, 259,
  144, 261,
  144, 264,
  144, 265,
  144, 267,
  144, 268,
  144, 269,
  144, 270,
  144, 272,
  144, 273,
  144, 274,
  144, 275,
  144, 279,
  144, 282,
  144, 285,
  144, 288,
  144, 289,
  144, 291,
  144, 293,
  144, 294,
  144, 297,
  144, 300,
  145, 146,
  145, 149,
  145, 150,
  145, 155,
  145, 156,
  145, 163,
  145, 164,
  145, 165,
  145, 167,
  145, 168,
  145, 169,
  145, 170,
  145, 172,
  145, 173,
  145, 174,
  145, 179,
  145, 180,
  145, 181,
  145, 182,
  145, 183,
  145, 188,
  145, 189,
  145, 190,
  145, 191,
  145, 194,
  145, 197,
  145, 199,
  145, 201,
  145, 203,
  145, 205,
  145, 207,
  145, 208,
  145, 211,
  145, 213,
  145, 220,
  145, 224,
  145, 226,
  145, 227,
  145, 228,
  145, 230,
  145, 232,
  145, 234,
  145, 237,
  145, 238,
  145, 240,
  145, 241,
  145, 242,
  145, 243,
  145, 245,
  145, 246,
  145, 249,
  145, 252,
  145, 254,
  145, 259,
  145, 260,
  145, 264,
  145, 268,
  145, 271,
  145, 275,
  145, 279,
  145, 280,
  145, 281,
  145, 282,
  145, 287,
  145, 288,
  145, 289,
  145, 290,
  145, 292,
  145, 293,
  145, 297,
  145, 298,
  145, 299,
  146, 147,
  146, 148,
  146, 149,
  146, 152,
  146, 155,
  146, 156,
  146, 157,
  146, 158,
  146, 159,
  146, 160,
  146, 161,
  146, 162,
  146, 164,
  146, 167,
  146, 169,
  146, 170,
  146, 173,
  146, 174,
  146, 175,
  146, 176,
  146, 179,
  146, 183,
  146, 184,
  146, 188,
  146, 191,
  146, 193,
  146, 196,
  146, 204,
  146, 205,
  146, 206,
  146, 212,
  146, 213,
  146, 217,
  146, 218,
  146, 221,
  146, 222,
  146, 227,
  146, 228,
  146, 229,
  146, 233,
  146, 234,
  146, 236,
  146, 242,
  146, 245,
  146, 247,
  146, 250,
  146, 251,
  146, 253,
  146, 254,
  146, 260,
  146, 261,
  146, 263,
  146, 266,
  146, 267,
  146, 269,
  146, 270,
  146, 271,
  146, 272,
  146, 273,
  146, 275,
  146, 278,
  146, 281,
  146, 283,
  146, 284,
  146, 286,
  146, 288,
  146, 289,
  146, 290,
  146, 291,
  146, 292,
  146, 293,
  146, 297,
  147, 148,
  147, 149,
  147, 153,
  147, 155,
  147, 157,
  147, 159,
  147, 161,
  147, 165,
  147, 167,
  147, 169,
  147, 176,
  147, 178,
  147, 179,
  147, 180,
  147, 184,
  147, 185,
  147, 189,
  147, 193,
  147, 195,
  147, 199,
  147, 203,
  147, 205,
  147, 206,
  147, 207,
  147, 210,
  147, 211,
  147, 212,
  147, 213,
  147, 215,
  147, 216,
  147, 217,
  147, 221,
  147, 222,
  147, 223,
  147, 224,
  147, 225,
  147, 227,
  147, 228,
  147, 231,
  147, 232,
  147, 233,
  147, 237,
  147, 239,
  147, 243,
  147, 245,
  147, 246,
  147, 247,
  147, 248,
  147, 249,
  147, 252,
  147, 257,
  147, 258,
  147, 259,
  147, 261,
  147, 264,
  147, 265,
  147, 266,
  147, 268,
  147, 272,
  147, 273,
  147, 274,
  147, 275,
  147, 276,
  147, 277,
  147, 278,
  147, 281,
  147, 282,
  147, 284,
  147, 285,
  147, 286,
  147, 288,
  147, 290,
  147, 291,
  147, 296,
  147, 298,
  147, 300,
  148, 150,
  148, 153,
  148, 155,
  148, 158,
  148, 159,
  148, 160,
  148, 161,
  148, 163,
  148, 166,
  148, 167,
  148, 168,
  148, 169,
  148, 170,
  148, 171,
  148, 173,
  148, 175,
  148, 177,
  148, 180,
  148, 184,
  148, 185,
  148, 186,
  148, 187,
  148, 188,
  148, 192,
  148, 193,
  148, 195,
  148, 196,
  148, 198,
  148, 206,
  148, 208,
  148, 210,
  148, 212,
  148, 214,
  148, 215,
  148, 217,
  148, 220,
  148, 223,
  148, 224,
  148, 225,
  148, 228,
  148, 229,
  148, 230,
  148, 231,
  148, 233,
  148, 234,
  148, 236,
  148, 238,
  148, 239,
  148, 240,
  148, 244,
  148, 246,
  148, 247,
  148, 249,
  148, 251,
  148, 252,
  148, 254,
  148, 256,
  148, 257,
  148, 259,
  148, 261,
  148, 262,
  148, 266,
  148, 269,
  148, 271,
  148, 272,
  148, 276,
  148, 283,
  148, 284,
  148, 285,
  148, 289,
  148, 291,
  148, 292,
  148, 293,
  148, 294,
  148, 295,
  148, 298,
  148, 300,
  149, 156,
  149, 158,
  149, 161,
  149, 162,
  149, 165,
  149, 167,
  149, 168,
  149, 169,
  149, 170,
  149, 171,
  149, 173,
  149, 175,
  149, 176,
  149, 178,
  149, 179,
  149, 182,
  149, 184,
  149, 185,
  149, 187,
  149, 188,
  149, 189,
  149, 190,
  149, 191,
  149, 194,
  149, 195,
  149, 197,
  149, 198,
  149, 200,
  149, 202,
  149, 207,
  149, 208,
  149, 210,
  149, 212,
  149, 213,
  149, 215,
  149, 216,
  149, 221,
  149, 224,
  149, 226,
  149, 228,
  149, 230,
  149, 232,
  149, 233,
  149, 235,
  149, 236,
  149, 237,
  149, 238,
  149, 242,
  149, 243,
  149, 244,
  149, 247,
  149, 252,
  149, 253,
  149, 255,
  149, 256,
  149, 257,
  149, 258,
  149, 259,
  149, 260,
  149, 262,
  149, 264,
  149, 266,
  149, 267,
  149, 268,
  149, 269,
  149, 270,
  149, 271,
  149, 272,
  149, 278,
  149, 279,
  149, 281,
  149, 283,
  149, 284,
  149, 285,
  149, 287,
  149, 291,
  149, 293,
  149, 300,
  150, 152,
  150, 154,
  150, 155,
  150, 156,
  150, 157,
  150, 160,
  150, 162,
  150, 163,
  150, 168,
  150, 170,
  150, 175,
  150, 176,
  150, 178,
  150, 179,
  150, 180,
  150, 183,
  150, 184,
  150, 186,
  150, 187,
  150, 188,
  150, 189,
  150, 191,
  150, 193,
  150, 198,
  150, 202,
  150, 205,
  150, 207,
  150, 208,
  150, 210,
  150, 211,
  150, 212,
  150, 213,
  150, 214,
  150, 215,
  150, 216,
  150, 218,
  150, 222,
  150, 225,
  150, 227,
  150, 228,
  150, 234,
  150, 235,
  150, 236,
  150, 239,
  150, 240,
  150, 244,
  150, 245,
  150, 247,
  150, 250,
  150, 251,
  150, 253,
  150, 255,
  150, 256,
  150, 258,
  150, 259,
  150, 262,
  150, 265,
  150, 266,
  150, 267,
  150, 268,
  150, 271,
  150, 273,
  150, 274,
  150, 275,
  150, 276,
  150, 277,
  150, 279,
  150, 280,
  150, 282,
  150, 284,
  150, 288,
  150, 290,
  150, 294,
  150, 297,
  150, 300,
  151, 152,
  151, 154,
  151, 155,
  151, 158,
  151, 165,
  151, 168,
  151, 170,
  151, 171,
  151, 176,
  151, 178,
  151, 179,
  151, 182,
  151, 183,
  151, 185,
  151, 189,
  151, 192,
  151, 193,
  151, 196,
  151, 200,
  151, 201,
  151, 202,
  151, 205,
  151, 207,
  151, 209,
  151, 210,
  151, 212,
  151, 213,
  151, 214,
  151, 215,
  151, 216,
  151, 217,
  151, 218,
  151, 222,
  151, 226,
  151, 228,
  151, 230,
  151, 231,
  151, 232,
  151, 234,
  151, 235,
  151, 236,
  151, 238,
  151, 239,
  151, 240,
  151, 242,
  151, 243,
  151, 249,
  151, 254,
  151, 255,
  151, 256,
  151, 257,
  151, 261,
  151, 263,
  151, 265,
  151, 268,
  151, 269,
  151, 271,
  151, 272,
  151, 273,
  151, 274,
  151, 276,
  151, 279,
  151, 281,
  151, 282,
  151, 283,
  151, 285,
  151, 289,
  151, 290,
  151, 291,
  151, 292,
  151, 293,
  151, 294,
  151, 297,
  151, 298,
  151, 300,
  152, 153,
  152, 154,
  152, 157,
  152, 159,
  152, 164,
  152, 168,
  152, 170,
  152, 172,
  152, 175,
  152, 176,
  152, 177,
  152, 178,
  152, 180,
  152, 184,
  152, 185,
  152, 186,
  152, 187,
  152, 188,
  152, 191,
  152, 193,
  152, 194,
  152, 195,
  152, 196,
  152, 197,
  152, 198,
  152, 199,
  152, 200,
  152, 201,
  152, 204,
  152, 206,
  152, 210,
  152, 212,
  152, 214,
  152, 215,
  152, 220,
  152, 222,
  152, 223,
  152, 225,
  152, 227,
  152, 229,
  152, 232,
  152, 237,
  152, 240,
  152, 241,
  152, 245,
  152, 248,
  152, 249,
  152, 252,
  152, 253,
  152, 256,
  152, 257,
  152, 261,
  152, 262,
  152, 266,
  152, 267,
  152, 269,
  152, 270,
  152, 272,
  152, 276,
  152, 277,
  152, 279,
  152, 280,
  152, 282,
  152, 283,
  152, 284,
  152, 285,
  152, 286,
  152, 289,
  152, 290,
  152, 291,
  152, 292,
  152, 295,
  152, 300,
  153, 158,
  153, 162,
  153, 163,
  153, 164,
  153, 166,
  153, 168,
  153, 169,
  153, 172,
  153, 174,
  153, 177,
  153, 178,
  153, 182,
  153, 183,
  153, 185,
  153, 186,
  153, 187,
  153, 188,
  153, 190,
  153, 191,
  153, 192,
  153, 194,
  153, 197,
  153, 198,
  153, 201,
  153, 202,
  153, 204,
  153, 205,
  153, 206,
  153, 209,
  153, 210,
  153, 215,
  153, 216,
  153, 217,
  153, 218,
  153, 219,
  153, 221,
  153, 222,
  153, 225,
  153, 227,
  153, 228,
  153, 230,
  153, 231,
  153, 232,
  153, 233,
  153, 234,
  153, 235,
  153, 239,
  153, 241,
  153, 244,
  153, 245,
  153, 246,
  153, 247,
  153, 248,
  153, 249,
  153, 251,
  153, 253,
  153, 254,
  153, 255,
  153, 259,
  153, 260,
  153, 261,
  153, 263,
  153, 264,
  153, 265,
  153, 268,
  153, 270,
  153, 272,
  153, 273,
  153, 275,
  153, 276,
  153, 279,
  153, 282,
  153, 284,
  153, 288,
  153, 291,
  153, 295,
  153, 296,
  153, 297,
  153, 300,
  154, 155,
  154, 156,
  154, 158,
  154, 162,
  154, 163,
  154, 164,
  154, 168,
  154, 170,
  154, 171,
  154, 173,
  154, 174,
  154, 177,
  154, 179,
  154, 180,
  154, 181,
  154, 185,
  154, 186,
  154, 188,
  154, 190,
  154, 191,
  154, 193,
  154, 195,
  154, 196,
  154, 197,
  154, 199,
  154, 202,
  154, 203,
  154, 205,
  154, 206,
  154, 209,
  154, 211,
  154, 215,
  154, 216,
  154, 217,
  154, 220,
  154, 221,
  154, 222,
  154, 223,
  154, 224,
  154, 228,
  154, 229,
  154, 230,
  154, 231,
  154, 233,
  154, 235,
  154, 236,
  154, 237,
  154, 238,
  154, 240,
  154, 241,
  154, 242,
  154, 244,
  154, 247,
  154, 250,
  154, 253,
  154, 254,
  154, 257,
  154, 259,
  154, 260,
  154, 261,
  154, 262,
  154, 264,
  154, 265,
  154, 266,
  154, 269,
  154, 270,
  154, 271,
  154, 272,
  154, 273,
  154, 274,
  154, 275,
  154, 277,
  154, 278,
  154, 279,
  154, 280,
  154, 281,
  154, 284,
  154, 285,
  154, 288,
  154, 289,
  154, 292,
  154, 293,
  154, 297,
  154, 299,
  155, 161,
  155, 163,
  155, 166,
  155, 168,
  155, 169,
  155, 173,
  155, 174,
  155, 178,
  155, 179,
  155, 180,
  155, 182,
  155, 183,
  155, 185,
  155, 187,
  155, 188,
  155, 191,
  155, 193,
  155, 194,
  155, 196,
  155, 197,
  155, 199,
  155, 202,
  155, 204,
  155, 209,
  155, 211,
  155, 216,
  155, 217,
  155, 219,
  155, 220,
  155, 221,
  155, 222,
  155, 223,
  155, 224,
  155, 227,
  155, 229,
  155, 230,
  155, 231,
  155, 232,
  155, 234,
  155, 235,
  155, 237,
  155, 238,
  155, 239,
  155, 241,
  155, 242,
  155, 244,
  155, 246,
  155, 254,
  155, 255,
  155, 256,
  155, 258,
  155, 262,
  155, 264,
  155, 266,
  155, 270,
  155, 271,
  155, 272,
  155, 274,
  155, 276,
  155, 278,
  155, 280,
  155, 281,
  155, 284,
  155, 287,
  155, 288,
  155, 289,
  155, 291,
  155, 292,
  155, 293,
  155, 294,
  155, 297,
  155, 299,
  156, 157,
  156, 158,
  156, 161,
  156, 162,
  156, 164,
  156, 172,
  156, 174,
  156, 176,
  156, 179,
  156, 182,
  156, 183,
  156, 185,
  156, 187,
  156, 189,
  156, 190,
  156, 194,
  156, 195,
  156, 196,
  156, 197,
  156, 200,
  156, 201,
  156, 202,
  156, 207,
  156, 208,
  156, 210,
  156, 211,
  156, 212,
  156, 213,
  156, 214,
  156, 215,
  156, 216,
  156, 218,
  156, 220,
  156, 221,
  156, 222,
  156, 225,
  156, 228,
  156, 229,
  156, 233,
  156, 234,
  156, 236,
  156, 237,
  156, 249,
  156, 250,
  156, 251,
  156, 254,
  156, 257,
  156, 259,
  156, 261,
  156, 262,
  156, 264,
  156, 266,
  156, 271,
  156, 273,
  156, 274,
  156, 275,
  156, 276,
  156, 277,
  156, 278,
  156, 279,
  156, 282,
  156, 287,
  156, 289,
  156, 292,
  156, 293,
  156, 298,
  156, 299,
  157, 159,
  157, 162,
  157, 165,
  157, 167,
  157, 171,
  157, 173,
  157, 175,
  157, 177,
  157, 178,
  157, 179,
  157, 181,
  157, 182,
  157, 183,
  157, 186,
  157, 187,
  157, 188,
  157, 189,
  157, 190,
  157, 191,
  157, 192,
  157, 198,
  157, 200,
  157, 202,
  157, 203,
  157, 204,
  157, 205,
  157, 208,
  157, 211,
  157, 215,
  157, 216,
  157, 218,
  157, 226,
  157, 229,
  157, 230,
  157, 231,
  157, 232,
  157, 233,
  157, 235,
  157, 236,
  157, 238,
  157, 239,
  157, 240,
  157, 243,
  157, 249,
  157, 251,
  157, 253,
  157, 254,
  157, 255,
  157, 256,
  157, 257,
  157, 258,
  157, 261,
  157, 265,
  157, 267,
  157, 269,
  157, 275,
  157, 276,
  157, 277,
  157, 280,
  157, 281,
  157, 282,
  157, 283,
  157, 284,
  157, 285,
  157, 286,
  157, 287,
  157, 290,
  157, 291,
  157, 292,
  157, 294,
  157, 298,
  157, 299,
  158, 162,
  158, 165,
  158, 166,
  158, 167,
  158, 168,
  158, 169,
  158, 171,
  158, 172,
  158, 173,
  158, 180,
  158, 185,
  158, 186,
  158, 187,
  158, 188,
  158, 190,
  158, 192,
  158, 193,
  158, 196,
  158, 197,
  158, 198,
  158, 199,
  158, 201,
  158, 203,
  158, 206,
  158, 207,
  158, 208,
  158, 211,
  158, 213,
  158, 214,
  158, 215,
  158, 216,
  158, 217,
  158, 220,
  158, 221,
  158, 223,
  158, 224,
  158, 225,
  158, 226,
  158, 227,
  158, 234,
  158, 236,
  158, 240,
  158, 244,
  158, 247,
  158, 249,
  158, 251,
  158, 253,
  158, 258,
  158, 260,
  158, 262,
  158, 263,
  158, 264,
  158, 265,
  158, 266,
  158, 267,
  158, 270,
  158, 273,
  158, 274,
  158, 277,
  158, 280,
  158, 281,
  158, 282,
  158, 284,
  158, 286,
  158, 287,
  158, 288,
  158, 294,
  158, 296,
  158, 300,
  159, 161,
  159, 163,
  159, 167,
  159, 169,
  159, 170,
  159, 171,
  159, 175,
  159, 177,
  159, 181,
  159, 182,
  159, 184,
  159, 185,
  159, 189,
  159, 190,
  159, 192,
  159, 194,
  159, 196,
  159, 197,
  159, 198,
  159, 199,
  159, 200,
  159, 201,
  159, 204,
  159, 207,
  159, 208,
  159, 209,
  159, 211,
  159, 213,
  159, 215,
  159, 217,
  159, 226,
  159, 228,
  159, 229,
  159, 231,
  159, 232,
  159, 235,
  159, 236,
  159, 237,
  159, 238,
  159, 239,
  159, 241,
  159, 246,
  159, 247,
  159, 251,
  159, 252,
  159, 253,
  159, 255,
  159, 258,
  159, 259,
  159, 260,
  159, 262,
  159, 269,
  159, 270,
  159, 273,
  159, 275,
  159, 277,
  159, 278,
  159, 280,
  159, 283,
  159, 285,
  159, 288,
  159, 289,
  159, 294,
  159, 297,
  160, 164,
  160, 166,
  160, 168,
  160, 171,
  160, 173,
  160, 176,
  160, 177,
  160, 182,
  160, 183,
  160, 184,
  160, 185,
  160, 186,
  160, 188,
  160, 189,
  160, 193,
  160, 196,
  160, 197,
  160, 198,
  160, 199,
  160, 200,
  160, 201,
  160, 202,
  160, 207,
  160, 208,
  160, 209,
  160, 210,
  160, 211,
  160, 213,
  160, 215,
  160, 216,
  160, 218,
  160, 220,
  160, 221,
  160, 222,
  160, 223,
  160, 228,
  160, 229,
  160, 231,
  160, 233,
  160, 234,
  160, 236,
  160, 242,
  160, 244,
  160, 246,
  160, 251,
  160, 254,
  160, 255,
  160, 257,
  160, 260,
  160, 270,
  160, 271,
  160, 275,
  160, 276,
  160, 277,
  160, 278,
  160, 279,
  160, 281,
  160, 282,
  160, 286,
  160, 287,
  160, 291,
  160, 292,
  160, 293,
  160, 294,
  160, 297,
  160, 299,
  160, 300,
  161, 162,
  161, 163,
  161, 165,
  161, 166,
  161, 168,
  161, 172,
  161, 173,
  161, 174,
  161, 177,
  161, 178,
  161, 182,
  161, 186,
  161, 189,
  161, 190,
  161, 191,
  161, 192,
  161, 194,
  161, 199,
  161, 203,
  161, 204,
  161, 208,
  161, 210,
  161, 213,
  161, 215,
  161, 216,
  161, 217,
  161, 218,
  161, 220,
  161, 221,
  161, 225,
  161, 226,
  161, 228,
  161, 229,
  161, 230,
  161, 233,
  161, 234,
  161, 237,
  161, 238,
  161, 241,
  161, 244,
  161, 247,
  161, 248,
  161, 250,
  161, 251,
  161, 254,
  161, 257,
  161, 258,
  161, 259,
  161, 260,
  161, 261,
  161, 264,
  161, 265,
  161, 268,
  161, 276,
  161, 277,
  161, 278,
  161, 279,
  161, 280,
  161, 282,
  161, 284,
  161, 285,
  161, 287,
  161, 292,
  161, 293,
  161, 294,
  161, 295,
  161, 296,
  161, 297,
  162, 163,
  162, 165,
  162, 167,
  162, 169,
  162, 171,
  162, 172,
  162, 175,
  162, 176,
  162, 180,
  162, 181,
  162, 184,
  162, 185,
  162, 187,
  162, 188,
  162, 190,
  162, 194,
  162, 198,
  162, 199,
  162, 200,
  162, 201,
  162, 202,
  162, 203,
  162, 204,
  162, 205,
  162, 214,
  162, 217,
  162, 219,
  162, 220,
  162, 225,
  162, 226,
  162, 227,
  162, 228,
  162, 229,
  162, 230,
  162, 231,
  162, 234,
  162, 236,
  162, 237,
  162, 239,
  162, 240,
  162, 241,
  162, 244,
  162, 245,
  162, 246,
  162, 248,
  162, 250,
  162, 252,
  162, 254,
  162, 255,
  162, 260,
  162, 262,
  162, 263,
  162, 264,
  162, 265,
  162, 266,
  162, 269,
  162, 270,
  162, 273,
  162, 281,
  162, 284,
  162, 285,
  162, 287,
  162, 288,
  162, 289,
  162, 291,
  162, 292,
  162, 295,
  163, 168,
  163, 169,
  163, 171,
  163, 172,
  163, 173,
  163, 178,
  163, 179,
  163, 183,
  163, 184,
  163, 185,
  163, 186,
  163, 188,
  163, 190,
  163, 192,
  163, 193,
  163, 194,
  163, 195,
  163, 197,
  163, 199,
  163, 202,
  163, 203,
  163, 205,
  163, 206,
  163, 211,
  163, 216,
  163, 219,
  163, 220,
  163, 221,
  163, 222,
  163, 223,
  163, 226,
  163, 229,
  163, 232,
  163, 233,
  163, 235,
  163, 237,
  163, 239,
  163, 242,
  163, 243,
  163, 244,
  163, 246,
  163, 248,
  163, 251,
  163, 255,
  163, 256,
  163, 257,
  163, 259,
  163, 260,
  163, 261,
  163, 262,
  163, 272,
  163, 273,
  163, 274,
  163, 278,
  163, 281,
  163, 286,
  163, 287,
  163, 288,
  163, 289,
  163, 290,
  163, 291,
  163, 292,
  163, 295,
  163, 298,
  163, 300,
  164, 165,
  164, 168,
  164, 169,
  164, 170,
  164, 172,
  164, 174,
  164, 175,
  164, 179,
  164, 181,
  164, 182,
  164, 184,
  164, 186,
  164, 187,
  164, 189,
  164, 190,
  164, 192,
  164, 195,
  164, 197,
  164, 198,
  164, 200,
  164, 203,
  164, 207,
  164, 208,
  164, 210,
  164, 212,
  164, 213,
  164, 214,
  164, 215,
  164, 216,
  164, 217,
  164, 218,
  164, 223,
  164, 224,
  164, 226,
  164, 227,
  164, 228,
  164, 229,
  164, 234,
  164, 235,
  164, 236,
  164, 238,
  164, 239,
  164, 242,
  164, 243,
  164, 245,
  164, 249,
  164, 252,
  164, 253,
  164, 254,
  164, 256,
  164, 257,
  164, 260,
  164, 262,
  164, 263,
  164, 265,
  164, 269,
  164, 270,
  164, 274,
  164, 276,
  164, 277,
  164, 280,
  164, 281,
  164, 285,
  164, 286,
  164, 288,
  164, 290,
  164, 291,
  164, 292,
  164, 295,
  164, 296,
  164, 297,
  164, 298,
  165, 166,
  165, 168,
  165, 169,
  165, 170,
  165, 171,
  165, 172,
  165, 176,
  165, 177,
  165, 180,
  165, 182,
  165, 183,
  165, 184,
  165, 185,
  165, 186,
  165, 188,
  165, 189,
  165, 190,
  165, 191,
  165, 192,
  165, 195,
  165, 200,
  165, 201,
  165, 203,
  165, 204,
  165, 205,
  165, 209,
  165, 212,
  165, 215,
  165, 219,
  165, 220,
  165, 221,
  165, 227,
  165, 228,
  165, 229,
  165, 231,
  165, 235,
  165, 236,
  165, 240,
  165, 241,
  165, 243,
  165, 244,
  165, 245,
  165, 247,
  165, 248,
  165, 249,
  165, 250,
  165, 253,
  165, 254,
  165, 256,
  165, 258,
  165, 260,
  165, 265,
  165, 266,
  165, 267,
  165, 268,
  165, 269,
  165, 270,
  165, 271,
  165, 272,
  165, 274,
  165, 276,
  165, 277,
  165, 278,
  165, 279,
  165, 281,
  165, 283,
  165, 289,
  165, 290,
  165, 291,
  165, 292,
  165, 294,
  165, 295,
  165, 296,
  165, 297,
  165, 299,
  166, 167,
  166, 168,
  166, 169,
  166, 170,
  166, 173,
  166, 174,
  166, 175,
  166, 176,
  166, 177,
  166, 178,
  166, 185,
  166, 186,
  166, 187,
  166, 188,
  166, 189,
  166, 190,
  166, 193,
  166, 200,
  166, 201,
  166, 202,
  166, 203,
  166, 204,
  166, 205,
  166, 210,
  166, 211,
  166, 212,
  166, 215,
  166, 219,
  166, 223,
  166, 224,
  166, 226,
  166, 229,
  166, 231,
  166, 232,
  166, 235,
  166, 237,
  166, 241,
  166, 242,
  166, 245,
  166, 246,
  166, 251,
  166, 253,
  166, 255,
  166, 256,
  166, 258,
  166, 259,
  166, 260,
  166, 262,
  166, 264,
  166, 265,
  166, 266,
  166, 267,
  166, 268,
  166, 269,
  166, 271,
  166, 272,
  166, 273,
  166, 274,
  166, 276,
  166, 278,
  166, 279,
  166, 280,
  166, 281,
  166, 283,
  166, 289,
  166, 290,
  166, 293,
  166, 295,
  166, 296,
  167, 168,
  167, 170,
  167, 173,
  167, 174,
  167, 175,
  167, 177,
  167, 178,
  167, 179,
  167, 180,
  167, 181,
  167, 183,
  167, 185,
  167, 186,
  167, 188,
  167, 189,
  167, 190,
  167, 191,
  167, 192,
  167, 194,
  167, 196,
  167, 197,
  167, 200,
  167, 203,
  167, 204,
  167, 205,
  167, 206,
  167, 208,
  167, 210,
  167, 211,
  167, 213,
  167, 215,
  167, 217,
  167, 218,
  167, 219,
  167, 220,
  167, 222,
  167, 223,
  167, 224,
  167, 225,
  167, 226,
  167, 227,
  167, 228,
  167, 230,
  167, 236,
  167, 239,
  167, 241,
  167, 242,
  167, 243,
  167, 244,
  167, 245,
  167, 247,
  167, 251,
  167, 253,
  167, 254,
  167, 256,
  167, 258,
  167, 260,
  167, 263,
  167, 264,
  167, 265,
  167, 267,
  167, 269,
  167, 270,
  167, 272,
  167, 275,
  167, 278,
  167, 279,
  167, 280,
  167, 282,
  167, 284,
  167, 288,
  167, 289,
  167, 291,
  167, 293,
  167, 294,
  167, 295,
  167, 296,
  168, 169,
  168, 170,
  168, 173,
  168, 174,
  168, 176,
  168, 178,
  168, 179,
  168, 184,
  168, 186,
  168, 189,
  168, 193,
  168, 196,
  168, 199,
  168, 201,
  168, 203,
  168, 204,
  168, 208,
  168, 209,
  168, 211,
  168, 212,
  168, 213,
  168, 214,
  168, 215,
  168, 216,
  168, 218,
  168, 220,
  168, 224,
  168, 225,
  168, 228,
  168, 233,
  168, 236,
  168, 237,
  168, 238,
  168, 242,
  168, 243,
  168, 252,
  168, 254,
  168, 255,
  168, 257,
  168, 258,
  168, 259,
  168, 260,
  168, 261,
  168, 262,
  168, 264,
  168, 265,
  168, 266,
  168, 267,
  168, 268,
  168, 269,
  168, 270,
  168, 271,
  168, 273,
  168, 274,
  168, 275,
  168, 276,
  168, 278,
  168, 282,
  168, 283,
  168, 285,
  168, 287,
  168, 289,
  168, 291,
  168, 297,
  168, 300,
  169, 174,
  169, 175,
  169, 177,
  169, 178,
  169, 179,
  169, 180,
  169, 183,
  169, 184,
  169, 185,
  169, 186,
  169, 189,
  169, 190,
  169, 191,
  169, 194,
  169, 195,
  169, 196,
  169, 202,
  169, 203,
  169, 206,
  169, 207,
  169, 208,
  169, 209,
  169, 210,
  169, 211,
  169, 213,
  169, 214,
  169, 220,
  169, 221,
  169, 222,
  169, 223,
  169, 225,
  169, 226,
  169, 228,
  169, 231,
  169, 234,
  169, 235,
  169, 236,
  169, 237,
  169, 238,
  169, 241,
  169, 242,
  169, 244,
  169, 246,
  169, 249,
  169, 250,
  169, 251,
  169, 252,
  169, 253,
  169, 254,
  169, 255,
  169, 256,
  169, 259,
  169, 261,
  169, 264,
  169, 266,
  169, 268,
  169, 271,
  169, 272,
  169, 275,
  169, 276,
  169, 277,
  169, 282,
  169, 283,
  169, 284,
  169, 285,
  169, 289,
  169, 290,
  169, 291,
  169, 292,
  169, 293,
  169, 294,
  169, 295,
  169, 296,
  169, 297,
  170, 171,
  170, 172,
  170, 175,
  170, 176,
  170, 178,
  170, 179,
  170, 181,
  170, 182,
  170, 183,
  170, 184,
  170, 187,
  170, 188,
  170, 189,
  170, 191,
  170, 194,
  170, 195,
  170, 201,
  170, 202,
  170, 203,
  170, 205,
  170, 207,
  170, 208,
  170, 210,
  170, 211,
  170, 213,
  170, 214,
  170, 215,
  170, 216,
  170, 220,
  170, 221,
  170, 225,
  170, 226,
  170, 230,
  170, 231,
  170, 233,
  170, 235,
  170, 236,
  170, 238,
  170, 239,
  170, 242,
  170, 243,
  170, 244,
  170, 247,
  170, 248,
  170, 253,
  170, 255,
  170, 258,
  170, 260,
  170, 261,
  170, 264,
  170, 265,
  170, 267,
  170, 269,
  170, 271,
  170, 272,
  170, 273,
  170, 274,
  170, 276,
  170, 277,
  170, 284,
  170, 286,
  170, 288,
  170, 289,
  170, 290,
  170, 291,
  170, 296,
  170, 297,
  170, 300,
  171, 172,
  171, 173,
  171, 175,
  171, 177,
  171, 179,
  171, 180,
  171, 181,
  171, 183,
  171, 184,
  171, 186,
  171, 189,
  171, 191,
  171, 192,
  171, 193,
  171, 194,
  171, 195,
  171, 198,
  171, 199,
  171, 200,
  171, 201,
  171, 203,
  171, 204,
  171, 209,
  171, 212,
  171, 216,
  171, 221,
  171, 222,
  171, 224,
  171, 228,
  171, 231,
  171, 232,
  171, 233,
  171, 234,
  171, 235,
  171, 240,
  171, 241,
  171, 242,
  171, 243,
  171, 244,
  171, 246,
  171, 250,
  171, 251,
  171, 252,
  171, 253,
  171, 254,
  171, 255,
  171, 258,
  171, 260,
  171, 261,
  171, 262,
  171, 263,
  171, 269,
  171, 271,
  171, 272,
  171, 273,
  171, 274,
  171, 275,
  171, 277,
  171, 278,
  171, 279,
  171, 282,
  171, 283,
  171, 284,
  171, 288,
  171, 289,
  171, 291,
  171, 292,
  171, 297,
  171, 298,
  171, 299,
  172, 173,
  172, 174,
  172, 176,
  172, 178,
  172, 179,
  172, 184,
  172, 185,
  172, 186,
  172, 187,
  172, 188,
  172, 190,
  172, 191,
  172, 193,
  172, 195,
  172, 197,
  172, 199,
  172, 201,
  172, 202,
  172, 205,
  172, 211,
  172, 213,
  172, 215,
  172, 216,
  172, 219,
  172, 221,
  172, 225,
  172, 227,
  172, 228,
  172, 232,
  172, 237,
  172, 238,
  172, 241,
  172, 243,
  172, 245,
  172, 249,
  172, 250,
  172, 252,
  172, 254,
  172, 255,
  172, 258,
  172, 259,
  172, 260,
  172, 262,
  172, 263,
  172, 265,
  172, 269,
  172, 270,
  172, 271,
  172, 273,
  172, 274,
  172, 275,
  172, 277,
  172, 278,
  172, 279,
  172, 280,
  172, 282,
  172, 284,
  172, 286,
  172, 287,
  172, 288,
  172, 291,
  172, 293,
  172, 294,
  172, 295,
  172, 296,
  172, 298,
  173, 175,
  173, 176,
  173, 184,
  173, 186,
  173, 189,
  173, 190,
  173, 191,
  173, 194,
  173, 196,
  173, 199,
  173, 200,
  173, 201,
  173, 204,
  173, 205,
  173, 207,
  173, 209,
  173, 215,
  173, 216,
  173, 217,
  173, 218,
  173, 219,
  173, 222,
  173, 224,
  173, 226,
  173, 228,
  173, 229,
  173, 233,
  173, 235,
  173, 236,
  173, 241,
  173, 243,
  173, 245,
  173, 246,
  173, 247,
  173, 251,
  173, 253,
  173, 254,
  173, 257,
  173, 258,
  173, 259,
  173, 262,
  173, 264,
  173, 265,
  173, 266,
  173, 270,
  173, 272,
  173, 274,
  173, 275,
  173, 276,
  173, 280,
  173, 281,
  173, 284,
  173, 286,
  173, 287,
  173, 289,
  173, 290,
  173, 291,
  173, 296,
  173, 298,
  173, 299,
  173, 300,
  174, 180,
  174, 183,
  174, 185,
  174, 193,
  174, 200,
  174, 201,
  174, 202,
  174, 203,
  174, 206,
  174, 208,
  174, 211,
  174, 212,
  174, 215,
  174, 220,
  174, 221,
  174, 223,
  174, 224,
  174, 225,
  174, 226,
  174, 227,
  174, 228,
  174, 229,
  174, 231,
  174, 232,
  174, 233,
  174, 236,
  174, 237,
  174, 239,
  174, 241,
  174, 245,
  174, 247,
  174, 250,
  174, 254,
  174, 256,
  174, 258,
  174, 263,
  174, 264,
  174, 265,
  174, 266,
  174, 267,
  174, 270,
  174, 271,
  174, 272,
  174, 277,
  174, 278,
  174, 279,
  174, 280,
  174, 282,
  174, 283,
  174, 284,
  174, 285,
  174, 287,
  174, 290,
  174, 292,
  174, 295,
  174, 296,
  175, 176,
  175, 177,
  175, 178,
  175, 179,
  175, 182,
  175, 185,
  175, 187,
  175, 188,
  175, 190,
  175, 193,
  175, 194,
  175, 196,
  175, 199,
  175, 201,
  175, 205,
  175, 207,
  175, 208,
  175, 209,
  175, 211,
  175, 214,
  175, 216,
  175, 221,
  175, 222,
  175, 226,
  175, 227,
  175, 229,
  175, 233,
  175, 236,
  175, 239,
  175, 240,
  175, 242,
  175, 245,
  175, 246,
  175, 250,
  175, 252,
  175, 253,
  175, 255,
  175, 256,
  175, 259,
  175, 261,
  175, 262,
  175, 263,
  175, 264,
  175, 266,
  175, 268,
  175, 269,
  175, 270,
  175, 271,
  175, 275,
  175, 278,
  175, 279,
  175, 284,
  175, 286,
  175, 287,
  175, 290,
  175, 292,
  175, 296,
  175, 299,
  175, 300,
  176, 177,
  176, 179,
  176, 181,
  176, 183,
  176, 191,
  176, 194,
  176, 197,
  176, 204,
  176, 206,
  176, 210,
  176, 212,
  176, 213,
  176, 214,
  176, 217,
  176, 218,
  176, 219,
  176, 220,
  176, 221,
  176, 223,
  176, 226,
  176, 228,
  176, 233,
  176, 234,
  176, 238,
  176, 240,
  176, 241,
  176, 242,
  176, 243,
  176, 245,
  176, 250,
  176, 251,
  176, 253,
  176, 256,
  176, 257,
  176, 258,
  176, 259,
  176, 260,
  176, 262,
  176, 263,
  176, 264,
  176, 265,
  176, 266,
  176, 268,
  176, 269,
  176, 271,
  176, 273,
  176, 275,
  176, 277,
  176, 278,
  176, 279,
  176, 282,
  176, 285,
  176, 286,
  176, 291,
  176, 292,
  176, 294,
  176, 296,
  177, 181,
  177, 182,
  177, 183,
  177, 184,
  177, 185,
  177, 187,
  177, 190,
  177, 193,
  177, 195,
  177, 197,
  177, 202,
  177, 204,
  177, 208,
  177, 209,
  177, 211,
  177, 215,
  177, 217,
  177, 219,
  177, 223,
  177, 226,
  177, 227,
  177, 228,
  177, 229,
  177, 230,
  177, 232,
  177, 234,
  177, 236,
  177, 242,
  177, 243,
  177, 245,
  177, 253,
  177, 256,
  177, 257,
  177, 259,
  177, 260,
  177, 264,
  177, 265,
  177, 267,
  177, 268,
  177, 270,
  177, 271,
  177, 273,
  177, 278,
  177, 280,
  177, 282,
  177, 283,
  177, 284,
  177, 286,
  177, 287,
  177, 288,
  177, 289,
  177, 291,
  177, 292,
  177, 294,
  177, 295,
  177, 297,
  178, 180,
  178, 183,
  178, 185,
  178, 187,
  178, 188,
  178, 189,
  178, 190,
  178, 195,
  178, 196,
  178, 199,
  178, 201,
  178, 202,
  178, 206,
  178, 207,
  178, 211,
  178, 212,
  178, 213,
  178, 214,
  178, 217,
  178, 218,
  178, 220,
  178, 222,
  178, 223,
  178, 224,
  178, 225,
  178, 229,
  178, 230,
  178, 231,
  178, 233,
  178, 234,
  178, 235,
  178, 236,
  178, 237,
  178, 239,
  178, 241,
  178, 242,
  178, 243,
  178, 244,
  178, 247,
  178, 248,
  178, 251,
  178, 252,
  178, 258,
  178, 260,
  178, 261,
  178, 262,
  178, 263,
  178, 264,
  178, 265,
  178, 266,
  178, 268,
  178, 269,
  178, 270,
  178, 271,
  178, 272,
  178, 273,
  178, 274,
  178, 275,
  178, 276,
  178, 280,
  178, 281,
  178, 285,
  178, 287,
  178, 292,
  178, 293,
  178, 295,
  178, 296,
  178, 297,
  179, 180,
  179, 181,
  179, 184,
  179, 186,
  179, 189,
  179, 191,
  179, 193,
  179, 194,
  179, 195,
  179, 196,
  179, 204,
  179, 206,
  179, 207,
  179, 208,
  179, 211,
  179, 212,
  179, 217,
  179, 218,
  179, 219,
  179, 220,
  179, 225,
  179, 228,
  179, 230,
  179, 231,
  179, 232,
  179, 233,
  179, 236,
  179, 237,
  179, 238,
  179, 239,
  179, 240,
  179, 241,
  179, 244,
  179, 246,
  179, 248,
  179, 249,
  179, 251,
  179, 252,
  179, 253,
  179, 256,
  179, 257,
  179, 258,
  179, 263,
  179, 265,
  179, 266,
  179, 268,
  179, 269,
  179, 272,
  179, 275,
  179, 276,
  179, 278,
  179, 279,
  179, 281,
  179, 283,
  179, 285,
  179, 286,
  179, 290,
  179, 292,
  179, 294,
  179, 295,
  179, 299,
  180, 183,
  180, 184,
  180, 185,
  180, 187,
  180, 188,
  180, 189,
  180, 190,
  180, 191,
  180, 194,
  180, 195,
  180, 196,
  180, 199,
  180, 201,
  180, 209,
  180, 210,
  180, 216,
  180, 217,
  180, 218,
  180, 228,
  180, 229,
  180, 233,
  180, 239,
  180, 240,
  180, 243,
  180, 244,
  180, 245,
  180, 246,
  180, 247,
  180, 248,
  180, 252,
  180, 253,
  180, 256,
  180, 258,
  180, 261,
  180, 262,
  180, 263,
  180, 264,
  180, 266,
  180, 267,
  180, 268,
  180, 269,
  180, 270,
  180, 274,
  180, 276,
  180, 279,
  180, 280,
  180, 281,
  180, 284,
  180, 286,
  180, 289,
  180, 291,
  180, 292,
  180, 293,
  180, 294,
  180, 296,
  180, 297,
  181, 184,
  181, 185,
  181, 187,
  181, 188,
  181, 191,
  181, 193,
  181, 194,
  181, 195,
  181, 202,
  181, 204,
  181, 205,
  181, 206,
  181, 207,
  181, 213,
  181, 214,
  181, 215,
  181, 216,
  181, 219,
  181, 221,
  181, 226,
  181, 227,
  181, 228,
  181, 229,
  181, 231,
  181, 233,
  181, 234,
  181, 235,
  181, 236,
  181, 238,
  181, 239,
  181, 242,
  181, 243,
  181, 245,
  181, 247,
  181, 248,
  181, 249,
  181, 251,
  181, 252,
  181, 253,
  181, 255,
  181, 256,
  181, 258,
  181, 259,
  181, 261,
  181, 264,
  181, 265,
  181, 269,
  181, 272,
  181, 273,
  181, 274,
  181, 276,
  181, 277,
  181, 278,
  181, 283,
  181, 285,
  181, 286,
  181, 287,
  181, 288,
  181, 289,
  181, 290,
  181, 291,
  181, 292,
  181, 293,
  181, 294,
  181, 296,
  181, 297,
  181, 298,
  182, 186,
  182, 189,
  182, 192,
  182, 195,
  182, 197,
  182, 198,
  182, 199,
  182, 200,
  182, 201,
  182, 203,
  182, 204,
  182, 206,
  182, 209,
  182, 214,
  182, 218,
  182, 219,
  182, 220,
  182, 221,
  182, 222,
  182, 223,
  182, 226,
  182, 229,
  182, 230,
  182, 231,
  182, 232,
  182, 233,
  182, 234,
  182, 235,
  182, 236,
  182, 239,
  182, 241,
  182, 242,
  182, 244,
  182, 246,
  182, 248,
  182, 249,
  182, 254,
  182, 256,
  182, 257,
  182, 260,
  182, 262,
  182, 263,
  182, 265,
  182, 267,
  182, 270,
  182, 274,
  182, 277,
  182, 279,
  182, 282,
  182, 287,
  182, 292,
  182, 293,
  182, 294,
  182, 295,
  182, 296,
  182, 297,
  183, 186,
  183, 188,
  183, 196,
  183, 197,
  183, 198,
  183, 199,
  183, 201,
  183, 203,
  183, 209,
  183, 211,
  183, 213,
  183, 214,
  183, 216,
  183, 219,
  183, 222,
  183, 228,
  183, 229,
  183, 230,
  183, 231,
  183, 233,
  183, 235,
  183, 237,
  183, 239,
  183, 240,
  183, 247,
  183, 249,
  183, 250,
  183, 251,
  183, 252,
  183, 254,
  183, 258,
  183, 262,
  183, 263,
  183, 267,
  183, 268,
  183, 269,
  183, 271,
  183, 273,
  183, 274,
  183, 275,
  183, 277,
  183, 278,
  183, 279,
  183, 280,
  183, 282,
  183, 287,
  183, 289,
  183, 290,
  183, 294,
  183, 296,
  183, 297,
  183, 298,
  183, 299,
  183, 300,
  184, 185,
  184, 187,
  184, 188,
  184, 189,
  184, 191,
  184, 192,
  184, 193,
  184, 196,
  184, 199,
  184, 200,
  184, 202,
  184, 203,
  184, 206,
  184, 207,
  184, 208,
  184, 213,
  184, 217,
  184, 218,
  184, 219,
  184, 221,
  184, 222,
  184, 223,
  184, 224,
  184, 226,
  184, 229,
  184, 230,
  184, 234,
  184, 238,
  184, 241,
  184, 245,
  184, 247,
  184, 248,
  184, 249,
  184, 252,
  184, 253,
  184, 256,
  184, 257,
  184, 258,
  184, 259,
  184, 261,
  184, 262,
  184, 263,
  184, 265,
  184, 266,
  184, 267,
  184, 269,
  184, 271,
  184, 272,
  184, 273,
  184, 275,
  184, 276,
  184, 277,
  184, 279,
  184, 281,
  184, 282,
  184, 284,
  184, 285,
  184, 286,
  184, 287,
  184, 288,
  184, 289,
  184, 290,
  184, 291,
  184, 292,
  184, 293,
  184, 296,
  184, 298,
  184, 299,
  184, 300,
  185, 189,
  185, 193,
  185, 194,
  185, 197,
  185, 198,
  185, 200,
  185, 202,
  185, 204,
  185, 207,
  185, 208,
  185, 212,
  185, 215,
  185, 216,
  185, 217,
  185, 220,
  185, 221,
  185, 222,
  185, 223,
  185, 224,
  185, 225,
  185, 226,
  185, 227,
  185, 228,
  185, 231,
  185, 233,
  185, 237,
  185, 238,
  185, 240,
  185, 242,
  185, 245,
  185, 246,
  185, 251,
  185, 255,
  185, 256,
  185, 257,
  185, 259,
  185, 263,
  185, 264,
  185, 265,
  185, 266,
  185, 269,
  185, 272,
  185, 278,
  185, 281,
  185, 282,
  185, 283,
  185, 286,
  185, 288,
  185, 290,
  185, 291,
  185, 292,
  185, 293,
  185, 295,
  185, 296,
  185, 298,
  185, 299,
  185, 300,
  186, 187,
  186, 189,
  186, 190,
  186, 195,
  186, 196,
  186, 199,
  186, 200,
  186, 203,
  186, 206,
  186, 208,
  186, 209,
  186, 213,
  186, 216,
  186, 218,
  186, 223,
  186, 225,
  186, 226,
  186, 227,
  186, 228,
  186, 229,
  186, 230,
  186, 231,
  186, 232,
  186, 238,
  186, 240,
  186, 244,
  186, 246,
  186, 247,
  186, 249,
  186, 250,
  186, 251,
  186, 252,
  186, 253,
  186, 255,
  186, 256,
  186, 257,
  186, 258,
  186, 259,
  186, 261,
  186, 262,
  186, 263,
  186, 264,
  186, 265,
  186, 266,
  186, 270,
  186, 272,
  186, 274,
  186, 276,
  186, 278,
  186, 279,
  186, 280,
  186, 281,
  186, 282,
  186, 287,
  186, 288,
  186, 289,
  186, 290,
  186, 291,
  186, 296,
  186, 297,
  186, 299,
  186, 300,
  187, 189,
  187, 193,
  187, 195,
  187, 196,
  187, 197,
  187, 198,
  187, 199,
  187, 200,
  187, 202,
  187, 203,
  187, 204,
  187, 205,
  187, 206,
  187, 207,
  187, 208,
  187, 210,
  187, 213,
  187, 215,
  187, 216,
  187, 217,
  187, 221,
  187, 223,
  187, 227,
  187, 231,
  187, 232,
  187, 233,
  187, 234,
  187, 238,
  187, 240,
  187, 244,
  187, 246,
  187, 249,
  187, 250,
  187, 252,
  187, 253,
  187, 254,
  187, 260,
  187, 265,
  187, 266,
  187, 270,
  187, 271,
  187, 274,
  187, 275,
  187, 279,
  187, 281,
  187, 287,
  187, 288,
  187, 289,
  187, 290,
  187, 291,
  187, 294,
  187, 299,
  187, 300,
  188, 189,
  188, 190,
  188, 191,
  188, 192,
  188, 196,
  188, 198,
  188, 199,
  188, 200,
  188, 205,
  188, 208,
  188, 209,
  188, 211,
  188, 213,
  188, 214,
  188, 219,
  188, 220,
  188, 221,
  188, 223,
  188, 226,
  188, 232,
  188, 238,
  188, 241,
  188, 242,
  188, 243,
  188, 245,
  188, 250,
  188, 252,
  188, 255,
  188, 258,
  188, 259,
  188, 260,
  188, 263,
  188, 271,
  188, 272,
  188, 273,
  188, 275,
  188, 276,
  188, 278,
  188, 279,
  188, 284,
  188, 285,
  188, 286,
  188, 290,
  188, 291,
  188, 292,
  188, 294,
  188, 295,
  188, 296,
  188, 298,
  188, 300,
  189, 192,
  189, 193,
  189, 194,
  189, 195,
  189, 198,
  189, 199,
  189, 200,
  189, 202,
  189, 204,
  189, 205,
  189, 206,
  189, 208,
  189, 211,
  189, 212,
  189, 214,
  189, 215,
  189, 216,
  189, 217,
  189, 220,
  189, 222,
  189, 223,
  189, 224,
  189, 225,
  189, 227,
  189, 229,
  189, 230,
  189, 233,
  189, 236,
  189, 240,
  189, 242,
  189, 245,
  189, 248,
  189, 250,
  189, 251,
  189, 252,
  189, 253,
  189, 256,
  189, 257,
  189, 260,
  189, 262,
  189, 263,
  189, 265,
  189, 267,
  189, 271,
  189, 272,
  189, 275,
  189, 277,
  189, 281,
  189, 282,
  189, 284,
  189, 286,
  189, 288,
  189, 291,
  189, 294,
  189, 296,
  189, 297,
  189, 299,
  189, 300,
  190, 191,
  190, 192,
  190, 193,
  190, 194,
  190, 197,
  190, 199,
  190, 201,
  190, 204,
  190, 207,
  190, 208,
  190, 209,
  190, 210,
  190, 212,
  190, 215,
  190, 216,
  190, 218,
  190, 225,
  190, 226,
  190, 227,
  190, 229,
  190, 235,
  190, 236,
  190, 244,
  190, 245,
  190, 246,
  190, 248,
  190, 249,
  190, 250,
  190, 255,
  190, 257,
  190, 260,
  190, 261,
  190, 264,
  190, 269,
  190, 270,
  190, 272,
  190, 273,
  190, 275,
  190, 277,
  190, 280,
  190, 281,
  190, 283,
  190, 285,
  190, 289,
  190, 290,
  190, 291,
  190, 293,
  190, 295,
  190, 300,
  191, 192,
  191, 195,
  191, 198,
  191, 203,
  191, 204,
  191, 206,
  191, 207,
  191, 211,
  191, 214,
  191, 215,
  191, 216,
  191, 218,
  191, 219,
  191, 220,
  191, 223,
  191, 227,
  191, 230,
  191, 232,
  191, 235,
  191, 240,
  191, 243,
  191, 244,
  191, 245,
  191, 247,
  191, 249,
  191, 255,
  191, 256,
  191, 259,
  191, 260,
  191, 263,
  191, 267,
  191, 270,
  191, 272,
  191, 274,
  191, 276,
  191, 278,
  191, 279,
  191, 280,
  191, 283,
  191, 284,
  191, 285,
  191, 286,
  191, 287,
  191, 288,
  191, 290,
  191, 291,
  191, 293,
  191, 295,
  191, 298,
  191, 300,
  192, 193,
  192, 194,
  192, 195,
  192, 200,
  192, 201,
  192, 204,
  192, 206,
  192, 207,
  192, 208,
  192, 210,
  192, 212,
  192, 213,
  192, 216,
  192, 217,
  192, 219,
  192, 221,
  192, 222,
  192, 223,
  192, 224,
  192, 226,
  192, 227,
  192, 231,
  192, 233,
  192, 235,
  192, 236,
  192, 237,
  192, 238,
  192, 239,
  192, 240,
  192, 242,
  192, 245,
  192, 246,
  192, 247,
  192, 250,
  192, 256,
  192, 259,
  192, 260,
  192, 264,
  192, 265,
  192, 267,
  192, 270,
  192, 271,
  192, 272,
  192, 273,
  192, 274,
  192, 275,
  192, 278,
  192, 281,
  192, 282,
  192, 283,
  192, 285,
  192, 286,
  192, 287,
  192, 289,
  192, 290,
  192, 291,
  192, 294,
  192, 296,
  192, 297,
  193, 195,
  193, 199,
  193, 200,
  193, 208,
  193, 210,
  193, 211,
  193, 213,
  193, 214,
  193, 218,
  193, 219,
  193, 220,
  193, 226,
  193, 227,
  193, 231,
  193, 233,
  193, 235,
  193, 236,
  193, 242,
  193, 245,
  193, 247,
  193, 250,
  193, 251,
  193, 254,
  193, 255,
  193, 256,
  193, 259,
  193, 265,
  193, 267,
  193, 268,
  193, 269,
  193, 270,
  193, 271,
  193, 274,
  193, 275,
  193, 279,
  193, 280,
  193, 281,
  193, 284,
  193, 286,
  193, 288,
  193, 292,
  193, 293,
  193, 296,
  193, 299,
  193, 300,
  194, 195,
  194, 197,
  194, 199,
  194, 200,
  194, 201,
  194, 202,
  194, 205,
  194, 206,
  194, 207,
  194, 209,
  194, 213,
  194, 214,
  194, 215,
  194, 216,
  194, 217,
  194, 218,
  194, 220,
  194, 221,
  194, 223,
  194, 225,
  194, 228,
  194, 229,
  194, 231,
  194, 234,
  194, 235,
  194, 236,
  194, 241,
  194, 244,
  194, 248,
  194, 249,
  194, 250,
  194, 251,
  194, 252,
  194, 254,
  194, 256,
  194, 257,
  194, 260,
  194, 261,
  194, 263,
  194, 267,
  194, 268,
  194, 269,
  194, 271,
  194, 275,
  194, 277,
  194, 278,
  194, 279,
  194, 281,
  194, 284,
  194, 286,
  194, 287,
  194, 290,
  194, 292,
  194, 293,
  194, 294,
  194, 295,
  194, 297,
  194, 300,
  195, 196,
  195, 199,
  195, 200,
  195, 201,
  195, 202,
  195, 205,
  195, 206,
  195, 207,
  195, 209,
  195, 210,
  195, 212,
  195, 215,
  195, 216,
  195, 218,
  195, 224,
  195, 227,
  195, 228,
  195, 231,
  195, 234,
  195, 235,
  195, 236,
  195, 237,
  195, 239,
  195, 240,
  195, 243,
  195, 244,
  195, 247,
  195, 248,
  195, 250,
  195, 251,
  195, 254,
  195, 259,
  195, 263,
  195, 268,
  195, 269,
  195, 270,
  195, 271,
  195, 272,
  195, 274,
  195, 275,
  195, 276,
  195, 277,
  195, 282,
  195, 283,
  195, 286,
  195, 288,
  195, 289,
  195, 290,
  195, 293,
  195, 295,
  195, 296,
  195, 297,
  195, 298,
  195, 299,
  195, 300,
  196, 197,
  196, 198,
  196, 199,
  196, 200,
  196, 202,
  196, 203,
  196, 205,
  196, 206,
  196, 208,
  196, 212,
  196, 213,
  196, 214,
  196, 216,
  196, 219,
  196, 221,
  196, 222,
  196, 223,
  196, 224,
  196, 226,
  196, 230,
  196, 234,
  196, 235,
  196, 239,
  196, 240,
  196, 244,
  196, 246,
  196, 248,
  196, 250,
  196, 251,
  196, 254,
  196, 255,
  196, 258,
  196, 259,
  196, 262,
  196, 263,
  196, 268,
  196, 269,
  196, 270,
  196, 271,
  196, 273,
  196, 274,
  196, 275,
  196, 277,
  196, 278,
  196, 279,
  196, 282,
  196, 283,
  196, 284,
  196, 286,
  196, 294,
  196, 295,
  196, 297,
  196, 298,
  196, 299,
  197, 198,
  197, 199,
  197, 201,
  197, 209,
  197, 210,
  197, 211,
  197, 214,
  197, 215,
  197, 216,
  197, 219,
  197, 222,
  197, 223,
  197, 225,
  197, 229,
  197, 232,
  197, 234,
  197, 235,
  197, 236,
  197, 238,
  197, 240,
  197, 245,
  197, 246,
  197, 247,
  197, 251,
  197, 252,
  197, 256,
  197, 260,
  197, 262,
  197, 263,
  197, 264,
  197, 266,
  197, 271,
  197, 272,
  197, 274,
  197, 276,
  197, 281,
  197, 286,
  197, 287,
  197, 288,
  197, 292,
  197, 296,
  197, 298,
  198, 200,
  198, 202,
  198, 203,
  198, 205,
  198, 208,
  198, 209,
  198, 210,
  198, 211,
  198, 214,
  198, 215,
  198, 216,
  198, 219,
  198, 220,
  198, 221,
  198, 228,
  198, 230,
  198, 232,
  198, 233,
  198, 234,
  198, 236,
  198, 237,
  198, 239,
  198, 241,
  198, 243,
  198, 244,
  198, 245,
  198, 246,
  198, 248,
  198, 249,
  198, 254,
  198, 256,
  198, 259,
  198, 260,
  198, 261,
  198, 262,
  198, 264,
  198, 266,
  198, 272,
  198, 273,
  198, 276,
  198, 279,
  198, 282,
  198, 283,
  198, 284,
  198, 287,
  198, 288,
  198, 289,
  198, 290,
  198, 292,
  198, 293,
  198, 296,
  198, 298,
  199, 200,
  199, 202,
  199, 203,
  199, 205,
  199, 208,
  199, 209,
  199, 212,
  199, 213,
  199, 214,
  199, 215,
  199, 218,
  199, 219,
  199, 222,
  199, 223,
  199, 224,
  199, 225,
  199, 229,
  199, 232,
  199, 233,
  199, 234,
  199, 236,
  199, 237,
  199, 240,
  199, 242,
  199, 245,
  199, 246,
  199, 247,
  199, 249,
  199, 250,
  199, 251,
  199, 254,
  199, 256,
  199, 257,
  199, 261,
  199, 263,
  199, 265,
  199, 266,
  199, 267,
  199, 268,
  199, 269,
  199, 270,
  199, 271,
  199, 272,
  199, 273,
  199, 279,
  199, 280,
  199, 282,
  199, 284,
  199, 285,
  199, 286,
  199, 288,
  199, 289,
  199, 290,
  199, 292,
  199, 293,
  199, 295,
  199, 296,
  199, 298,
  199, 299,
  200, 201,
  200, 202,
  200, 203,
  200, 204,
  200, 206,
  200, 207,
  200, 208,
  200, 211,
  200, 213,
  200, 215,
  200, 216,
  200, 218,
  200, 220,
  200, 221,
  200, 224,
  200, 225,
  200, 227,
  200, 228,
  200, 229,
  200, 233,
  200, 234,
  200, 236,
  200, 238,
  200, 242,
  200, 246,
  200, 248,
  200, 249,
  200, 251,
  200, 252,
  200, 254,
  200, 256,
  200, 257,
  200, 258,
  200, 260,
  200, 262,
  200, 263,
  200, 266,
  200, 268,
  200, 269,
  200, 270,
  200, 272,
  200, 275,
  200, 276,
  200, 277,
  200, 278,
  200, 280,
  200, 282,
  200, 283,
  200, 284,
  200, 285,
  200, 286,
  200, 287,
  200, 296,
  201, 202,
  201, 203,
  201, 204,
  201, 206,
  201, 210,
  201, 213,
  201, 215,
  201, 220,
  201, 222,
  201, 225,
  201, 227,
  201, 228,
  201, 233,
  201, 235,
  201, 236,
  201, 237,
  201, 239,
  201, 240,
  201, 244,
  201, 246,
  201, 247,
  201, 248,
  201, 249,
  201, 254,
  201, 256,
  201, 258,
  201, 262,
  201, 263,
  201, 264,
  201, 265,
  201, 268,
  201, 269,
  201, 270,
  201, 272,
  201, 274,
  201, 277,
  201, 281,
  201, 285,
  201, 287,
  201, 289,
  201, 290,
  201, 291,
  201, 293,
  201, 295,
  201, 297,
  202, 203,
  202, 204,
  202, 205,
  202, 206,
  202, 208,
  202, 209,
  202, 211,
  202, 212,
  202, 214,
  202, 215,
  202, 216,
  202, 217,
  202, 219,
  202, 221,
  202, 222,
  202, 223,
  202, 224,
  202, 226,
  202, 227,
  202, 229,
  202, 232,
  202, 236,
  202, 238,
  202, 239,
  202, 240,
  202, 242,
  202, 244,
  202, 245,
  202, 246,
  202, 248,
  202, 249,
  202, 251,
  202, 253,
  202, 254,
  202, 259,
  202, 260,
  202, 261,
  202, 262,
  202, 267,
  202, 268,
  202, 269,
  202, 270,
  202, 272,
  202, 278,
  202, 279,
  202, 280,
  202, 281,
  202, 282,
  202, 283,
  202, 292,
  202, 296,
  202, 297,
  202, 298,
  202, 299,
  203, 204,
  203, 206,
  203, 209,
  203, 210,
  203, 211,
  203, 214,
  203, 215,
  203, 219,
  203, 220,
  203, 221,
  203, 223,
  203, 224,
  203, 225,
  203, 226,
  203, 228,
  203, 229,
  203, 235,
  203, 237,
  203, 239,
  203, 241,
  203, 245,
  203, 247,
  203, 249,
  203, 250,
  203, 251,
  203, 252,
  203, 254,
  203, 256,
  203, 260,
  203, 264,
  203, 265,
  203, 266,
  203, 267,
  203, 268,
  203, 269,
  203, 271,
  203, 273,
  203, 275,
  203, 276,
  203, 278,
  203, 279,
  203, 282,
  203, 283,
  203, 289,
  203, 292,
  203, 293,
  203, 296,
  203, 297,
  203, 298,
  204, 206,
  204, 208,
  204, 210,
  204, 212,
  204, 215,
  204, 216,
  204, 217,
  204, 218,
  204, 219,
  204, 223,
  204, 224,
  204, 225,
  204, 227,
  204, 230,
  204, 232,
  204, 233,
  204, 237,
  204, 239,
  204, 247,
  204, 248,
  204, 249,
  204, 252,
  204, 254,
  204, 260,
  204, 261,
  204, 262,
  204, 263,
  204, 264,
  204, 265,
  204, 267,
  204, 268,
  204, 272,
  204, 273,
  204, 276,
  204, 283,
  204, 285,
  204, 287,
  204, 288,
  204, 289,
  204, 290,
  204, 292,
  204, 295,
  204, 297,
  204, 299,
  204, 300,
  205, 206,
  205, 207,
  205, 209,
  205, 211,
  205, 212,
  205, 214,
  205, 217,
  205, 218,
  205, 221,
  205, 222,
  205, 223,
  205, 226,
  205, 227,
  205, 228,
  205, 232,
  205, 233,
  205, 236,
  205, 237,
  205, 238,
  205, 240,
  205, 242,
  205, 243,
  205, 244,
  205, 245,
  205, 246,
  205, 248,
  205, 249,
  205, 251,
  205, 252,
  205, 253,
  205, 256,
  205, 257,
  205, 259,
  205, 260,
  205, 261,
  205, 262,
  205, 265,
  205, 267,
  205, 268,
  205, 269,
  205, 271,
  205, 272,
  205, 273,
  205, 274,
  205, 275,
  205, 276,
  205, 280,
  205, 281,
  205, 282,
  205, 283,
  205, 286,
  205, 289,
  205, 290,
  205, 292,
  205, 293,
  205, 295,
  205, 296,
  205, 299,
  205, 300,
  206, 211,
  206, 213,
  206, 214,
  206, 215,
  206, 216,
  206, 219,
  206, 224,
  206, 226,
  206, 227,
  206, 228,
  206, 232,
  206, 235,
  206, 242,
  206, 243,
  206, 244,
  206, 245,
  206, 247,
  206, 248,
  206, 250,
  206, 253,
  206, 255,
  206, 260,
  206, 264,
  206, 266,
  206, 267,
  206, 268,
  206, 269,
  206, 270,
  206, 271,
  206, 276,
  206, 280,
  206, 281,
  206, 284,
  206, 285,
  206, 286,
  206, 288,
  206, 289,
  206, 290,
  206, 292,
  206, 293,
  206, 300,
  207, 214,
  207, 215,
  207, 216,
  207, 217,
  207, 219,
  207, 223,
  207, 227,
  207, 229,
  207, 230,
  207, 233,
  207, 236,
  207, 237,
  207, 239,
  207, 240,
  207, 242,
  207, 244,
  207, 245,
  207, 247,
  207, 248,
  207, 249,
  207, 250,
  207, 251,
  207, 252,
  207, 254,
  207, 261,
  207, 264,
  207, 265,
  207, 267,
  207, 268,
  207, 272,
  207, 281,
  207, 282,
  207, 283,
  207, 288,
  207, 291,
  207, 292,
  207, 293,
  207, 297,
  207, 298,
  207, 300,
  208, 210,
  208, 212,
  208, 213,
  208, 214,
  208, 215,
  208, 218,
  208, 220,
  208, 221,
  208, 222,
  208, 224,
  208, 227,
  208, 228,
  208, 233,
  208, 234,
  208, 235,
  208, 240,
  208, 243,
  208, 244,
  208, 245,
  208, 248,
  208, 253,
  208, 254,
  208, 255,
  208, 256,
  208, 259,
  208, 261,
  208, 263,
  208, 264,
  208, 265,
  208, 266,
  208, 268,
  208, 279,
  208, 280,
  208, 281,
  208, 282,
  208, 283,
  208, 285,
  208, 287,
  208, 288,
  208, 290,
  208, 291,
  208, 295,
  208, 296,
  208, 297,
  208, 298,
  208, 300,
  209, 215,
  209, 216,
  209, 218,
  209, 220,
  209, 223,
  209, 228,
  209, 231,
  209, 233,
  209, 234,
  209, 235,
  209, 236,
  209, 237,
  209, 239,
  209, 240,
  209, 243,
  209, 244,
  209, 245,
  209, 248,
  209, 251,
  209, 254,
  209, 257,
  209, 258,
  209, 259,
  209, 261,
  209, 263,
  209, 264,
  209, 266,
  209, 268,
  209, 269,
  209, 270,
  209, 272,
  209, 274,
  209, 275,
  209, 276,
  209, 278,
  209, 280,
  209, 285,
  209, 286,
  209, 289,
  209, 290,
  209, 291,
  209, 292,
  209, 293,
  209, 295,
  209, 298,
  210, 212,
  210, 213,
  210, 214,
  210, 216,
  210, 217,
  210, 218,
  210, 220,
  210, 221,
  210, 222,
  210, 224,
  210, 225,
  210, 227,
  210, 228,
  210, 233,
  210, 235,
  210, 236,
  210, 238,
  210, 239,
  210, 240,
  210, 242,
  210, 247,
  210, 251,
  210, 252,
  210, 255,
  210, 256,
  210, 257,
  210, 258,
  210, 259,
  210, 260,
  210, 261,
  210, 263,
  210, 264,
  210, 265,
  210, 272,
  210, 274,
  210, 275,
  210, 277,
  210, 278,
  210, 282,
  210, 283,
  210, 284,
  210, 285,
  210, 286,
  210, 287,
  210, 288,
  210, 289,
  210, 290,
  210, 291,
  210, 293,
  210, 295,
  210, 297,
  210, 298,
  211, 216,
  211, 218,
  211, 219,
  211, 220,
  211, 221,
  211, 222,
  211, 225,
  211, 228,
  211, 229,
  211, 231,
  211, 232,
  211, 237,
  211, 238,
  211, 239,
  211, 241,
  211, 242,
  211, 244,
  211, 247,
  211, 249,
  211, 250,
  211, 256,
  211, 264,
  211, 267,
  211, 268,
  211, 269,
  211, 272,
  211, 273,
  211, 277,
  211, 283,
  211, 284,
  211, 285,
  211, 286,
  211, 288,
  211, 289,
  211, 291,
  211, 292,
  211, 293,
  211, 300,
  212, 213,
  212, 214,
  212, 217,
  212, 222,
  212, 225,
  212, 228,
  212, 229,
  212, 230,
  212, 231,
  212, 232,
  212, 233,
  212, 234,
  212, 235,
  212, 237,
  212, 240,
  212, 242,
  212, 244,
  212, 247,
  212, 249,
  212, 251,
  212, 252,
  212, 253,
  212, 256,
  212, 257,
  212, 263,
  212, 264,
  212, 265,
  212, 267,
  212, 268,
  212, 271,
  212, 277,
  212, 281,
  212, 282,
  212, 284,
  212, 288,
  212, 292,
  212, 293,
  212, 297,
  212, 298,
  212, 299,
  213, 214,
  213, 216,
  213, 218,
  213, 219,
  213, 221,
  213, 227,
  213, 232,
  213, 235,
  213, 237,
  213, 239,
  213, 240,
  213, 241,
  213, 243,
  213, 244,
  213, 250,
  213, 252,
  213, 253,
  213, 258,
  213, 259,
  213, 263,
  213, 265,
  213, 266,
  213, 267,
  213, 268,
  213, 270,
  213, 273,
  213, 274,
  213, 277,
  213, 278,
  213, 279,
  213, 280,
  213, 281,
  213, 283,
  213, 285,
  213, 286,
  213, 287,
  213, 288,
  213, 291,
  213, 294,
  213, 296,
  213, 298,
  214, 215,
  214, 216,
  214, 217,
  214, 220,
  214, 221,
  214, 222,
  214, 226,
  214, 229,
  214, 230,
  214, 237,
  214, 238,
  214, 239,
  214, 240,
  214, 241,
  214, 243,
  214, 246,
  214, 247,
  214, 249,
  214, 252,
  214, 254,
  214, 256,
  214, 257,
  214, 258,
  214, 260,
  214, 261,
  214, 262,
  214, 265,
  214, 266,
  214, 275,
  214, 276,
  214, 277,
  214, 278,
  214, 279,
  214, 280,
  214, 283,
  214, 288,
  214, 290,
  214, 295,
  214, 296,
  214, 299,
  215, 217,
  215, 218,
  215, 224,
  215, 225,
  215, 226,
  215, 228,
  215, 229,
  215, 231,
  215, 232,
  215, 233,
  215, 234,
  215, 236,
  215, 238,
  215, 240,
  215, 241,
  215, 244,
  215, 247,
  215, 248,
  215, 254,
  215, 256,
  215, 257,
  215, 258,
  215, 259,
  215, 261,
  215, 263,
  215, 268,
  215, 269,
  215, 271,
  215, 272,
  215, 275,
  215, 276,
  215, 277,
  215, 278,
  215, 281,
  215, 284,
  215, 286,
  215, 289,
  215, 292,
  215, 293,
  215, 295,
  215, 296,
  215, 298,
  215, 299,
  215, 300,
  216, 217,
  216, 218,
  216, 219,
  216, 220,
  216, 221,
  216, 222,
  216, 227,
  216, 231,
  216, 232,
  216, 233,
  216, 234,
  216, 235,
  216, 236,
  216, 238,
  216, 244,
  216, 247,
  216, 250,
  216, 253,
  216, 255,
  216, 259,
  216, 263,
  216, 267,
  216, 269,
  216, 271,
  216, 273,
  216, 274,
  216, 276,
  216, 278,
  216, 280,
  216, 281,
  216, 282,
  216, 285,
  216, 287,
  216, 290,
  216, 291,
  216, 292,
  216, 293,
  216, 295,
  216, 298,
  216, 299,
  217, 218,
  217, 219,
  217, 221,
  217, 222,
  217, 225,
  217, 226,
  217, 227,
  217, 228,
  217, 230,
  217, 232,
  217, 233,
  217, 234,
  217, 235,
  217, 236,
  217, 237,
  217, 238,
  217, 239,
  217, 240,
  217, 245,
  217, 248,
  217, 249,
  217, 250,
  217, 251,
  217, 252,
  217, 256,
  217, 262,
  217, 263,
  217, 266,
  217, 267,
  217, 268,
  217, 270,
  217, 272,
  217, 274,
  217, 277,
  217, 278,
  217, 280,
  217, 281,
  217, 282,
  217, 285,
  217, 288,
  217, 290,
  217, 291,
  217, 293,
  217, 297,
  217, 298,
  217, 300,
  218, 219,
  218, 221,
  218, 226,
  218, 228,
  218, 233,
  218, 235,
  218, 236,
  218, 238,
  218, 242,
  218, 244,
  218, 245,
  218, 250,
  218, 255,
  218, 256,
  218, 260,
  218, 261,
  218, 263,
  218, 267,
  218, 268,
  218, 270,
  218, 271,
  218, 274,
  218, 277,
  218, 280,
  218, 281,
  218, 283,
  218, 286,
  218, 288,
  218, 289,
  218, 294,
  218, 298,
  219, 221,
  219, 223,
  219, 225,
  219, 227,
  219, 229,
  219, 230,
  219, 231,
  219, 233,
  219, 234,
  219, 235,
  219, 238,
  219, 242,
  219, 247,
  219, 253,
  219, 254,
  219, 255,
  219, 257,
  219, 258,
  219, 260,
  219, 263,
  219, 264,
  219, 266,
  219, 267,
  219, 269,
  219, 271,
  219, 272,
  219, 273,
  219, 276,
  219, 278,
  219, 281,
  219, 282,
  219, 283,
  219, 284,
  219, 285,
  219, 286,
  219, 288,
  219, 289,
  219, 290,
  219, 293,
  219, 299,
  219, 300,
  220, 222,
  220, 224,
  220, 227,
  220, 228,
  220, 229,
  220, 231,
  220, 234,
  220, 235,
  220, 238,
  220, 240,
  220, 243,
  220, 247,
  220, 251,
  220, 252,
  220, 253,
  220, 256,
  220, 258,
  220, 266,
  220, 268,
  220, 271,
  220, 273,
  220, 277,
  220, 278,
  220, 279,
  220, 281,
  220, 282,
  220, 284,
  220, 288,
  220, 289,
  220, 293,
  220, 298,
  221, 227,
  221, 229,
  221, 231,
  221, 232,
  221, 234,
  221, 235,
  221, 237,
  221, 238,
  221, 240,
  221, 241,
  221, 242,
  221, 244,
  221, 247,
  221, 248,
  221, 250,
  221, 255,
  221, 256,
  221, 257,
  221, 261,
  221, 262,
  221, 263,
  221, 265,
  221, 266,
  221, 268,
  221, 269,
  221, 272,
  221, 273,
  221, 277,
  221, 278,
  221, 280,
  221, 285,
  221, 287,
  221, 288,
  221, 291,
  221, 293,
  221, 295,
  221, 297,
  222, 224,
  222, 225,
  222, 227,
  222, 228,
  222, 234,
  222, 236,
  222, 240,
  222, 242,
  222, 245,
  222, 247,
  222, 248,
  222, 249,
  222, 253,
  222, 256,
  222, 257,
  222, 259,
  222, 262,
  222, 266,
  222, 267,
  222, 269,
  222, 270,
  222, 271,
  222, 272,
  222, 273,
  222, 276,
  222, 279,
  222, 280,
  222, 282,
  222, 286,
  222, 287,
  222, 289,
  222, 291,
  222, 293,
  222, 297,
  222, 299,
  222, 300,
  223, 224,
  223, 226,
  223, 228,
  223, 230,
  223, 231,
  223, 232,
  223, 233,
  223, 234,
  223, 235,
  223, 236,
  223, 237,
  223, 239,
  223, 243,
  223, 246,
  223, 249,
  223, 252,
  223, 254,
  223, 257,
  223, 259,
  223, 262,
  223, 263,
  223, 268,
  223, 273,
  223, 276,
  223, 277,
  223, 279,
  223, 280,
  223, 284,
  223, 288,
  223, 290,
  223, 297,
  224, 226,
  224, 227,
  224, 229,
  224, 230,
  224, 231,
  224, 232,
  224, 235,
  224, 238,
  224, 239,
  224, 240,
  224, 241,
  224, 243,
  224, 245,
  224, 246,
  224, 247,
  224, 250,
  224, 254,
  224, 255,
  224, 256,
  224, 258,
  224, 259,
  224, 260,
  224, 262,
  224, 263,
  224, 264,
  224, 266,
  224, 267,
  224, 269,
  224, 273,
  224, 277,
  224, 278,
  224, 281,
  224, 283,
  224, 285,
  224, 289,
  224, 290,
  224, 291,
  224, 292,
  224, 294,
  224, 295,
  224, 298,
  225, 227,
  225, 228,
  225, 234,
  225, 238,
  225, 240,
  225, 242,
  225, 243,
  225, 244,
  225, 246,
  225, 248,
  225, 249,
  225, 254,
  225, 255,
  225, 258,
  225, 261,
  225, 263,
  225, 265,
  225, 269,
  225, 271,
  225, 273,
  225, 274,
  225, 278,
  225, 279,
  225, 281,
  225, 283,
  225, 285,
  225, 286,
  225, 288,
  225, 289,
  225, 296,
  225, 297,
  225, 299,
  225, 300,
  226, 229,
  226, 230,
  226, 233,
  226, 235,
  226, 236,
  226, 243,
  226, 244,
  226, 245,
  226, 246,
  226, 249,
  226, 254,
  226, 255,
  226, 256,
  226, 258,
  226, 259,
  226, 260,
  226, 270,
  226, 272,
  226, 273,
  226, 275,
  226, 277,
  226, 281,
  226, 283,
  226, 284,
  226, 289,
  226, 291,
  226, 292,
  226, 295,
  226, 297,
  226, 299,
  227, 228,
  227, 229,
  227, 230,
  227, 231,
  227, 233,
  227, 237,
  227, 238,
  227, 239,
  227, 242,
  227, 243,
  227, 244,
  227, 245,
  227, 246,
  227, 247,
  227, 248,
  227, 250,
  227, 251,
  227, 252,
  227, 254,
  227, 256,
  227, 257,
  227, 258,
  227, 260,
  227, 261,
  227, 262,
  227, 264,
  227, 265,
  227, 266,
  227, 269,
  227, 270,
  227, 272,
  227, 274,
  227, 276,
  227, 277,
  227, 279,
  227, 283,
  227, 285,
  227, 286,
  227, 288,
  227, 289,
  227, 293,
  227, 298,
  227, 299,
  228, 229,
  228, 230,
  228, 231,
  228, 233,
  228, 234,
  228, 236,
  228, 240,
  228, 242,
  228, 243,
  228, 245,
  228, 249,
  228, 253,
  228, 254,
  228, 255,
  228, 256,
  228, 257,
  228, 259,
  228, 261,
  228, 263,
  228, 266,
  228, 267,
  228, 268,
  228, 270,
  228, 271,
  228, 272,
  228, 275,
  228, 277,
  228, 278,
  228, 279,
  228, 280,
  228, 281,
  228, 283,
  228, 284,
  228, 285,
  228, 287,
  228, 299,
  229, 230,
  229, 232,
  229, 238,
  229, 240,
  229, 243,
  229, 247,
  229, 248,
  229, 250,
  229, 254,
  229, 256,
  229, 258,
  229, 261,
  229, 266,
  229, 268,
  229, 269,
  229, 275,
  229, 276,
  229, 280,
  229, 281,
  229, 283,
  229, 285,
  229, 288,
  229, 289,
  229, 292,
  229, 293,
  229, 296,
  229, 297,
  229, 298,
  230, 231,
  230, 232,
  230, 234,
  230, 235,
  230, 236,
  230, 237,
  230, 239,
  230, 240,
  230, 241,
  230, 246,
  230, 247,
  230, 248,
  230, 250,
  230, 252,
  230, 256,
  230, 258,
  230, 260,
  230, 261,
  230, 267,
  230, 268,
  230, 269,
  230, 270,
  230, 271,
  230, 273,
  230, 277,
  230, 278,
  230, 280,
  230, 282,
  230, 285,
  230, 288,
  230, 290,
  230, 291,
  230, 292,
  230, 293,
  230, 295,
  230, 300,
  231, 232,
  231, 233,
  231, 235,
  231, 239,
  231, 240,
  231, 241,
  231, 242,
  231, 243,
  231, 246,
  231, 250,
  231, 252,
  231, 256,
  231, 257,
  231, 260,
  231, 263,
  231, 266,
  231, 267,
  231, 268,
  231, 271,
  231, 272,
  231, 275,
  231, 277,
  231, 280,
  231, 282,
  231, 283,
  231, 284,
  231, 285,
  231, 286,
  231, 289,
  231, 290,
  231, 292,
  231, 293,
  231, 296,
  231, 297,
  231, 298,
  231, 300,
  232, 233,
  232, 235,
  232, 241,
  232, 242,
  232, 244,
  232, 245,
  232, 247,
  232, 250,
  232, 251,
  232, 252,
  232, 256,
  232, 261,
  232, 263,
  232, 264,
  232, 265,
  232, 266,
  232, 269,
  232, 270,
  232, 272,
  232, 273,
  232, 276,
  232, 278,
  232, 280,
  232, 282,
  232, 287,
  232, 290,
  232, 292,
  232, 296,
  232, 297,
  233, 238,
  233, 242,
  233, 243,
  233, 245,
  233, 247,
  233, 251,
  233, 252,
  233, 253,
  233, 254,
  233, 257,
  233, 263,
  233, 265,
  233, 266,
  233, 267,
  233, 268,
  233, 271,
  233, 274,
  233, 275,
  233, 276,
  233, 279,
  233, 281,
  233, 282,
  233, 283,
  233, 285,
  233, 286,
  233, 287,
  233, 291,
  233, 293,
  233, 295,
  233, 296,
  233, 297,
  233, 298,
  233, 299,
  234, 236,
  234, 238,
  234, 241,
  234, 242,
  234, 243,
  234, 244,
  234, 246,
  234, 247,
  234, 249,
  234, 251,
  234, 253,
  234, 254,
  234, 256,
  234, 257,
  234, 259,
  234, 260,
  234, 265,
  234, 266,
  234, 267,
  234, 269,
  234, 270,
  234, 272,
  234, 278,
  234, 280,
  234, 292,
  235, 236,
  235, 239,
  235, 242,
  235, 243,
  235, 247,
  235, 248,
  235, 250,
  235, 252,
  235, 253,
  235, 258,
  235, 260,
  235, 261,
  235, 263,
  235, 264,
  235, 266,
  235, 267,
  235, 268,
  235, 269,
  235, 271,
  235, 272,
  235, 273,
  235, 276,
  235, 279,
  235, 282,
  235, 283,
  235, 284,
  235, 285,
  235, 287,
  235, 288,
  235, 290,
  235, 293,
  235, 294,
  235, 295,
  235, 296,
  235, 297,
  235, 298,
  235, 300,
  236, 241,
  236, 242,
  236, 243,
  236, 247,
  236, 248,
  236, 250,
  236, 251,
  236, 253,
  236, 254,
  236, 256,
  236, 258,
  236, 259,
  236, 260,
  236, 262,
  236, 265,
  236, 267,
  236, 269,
  236, 273,
  236, 274,
  236, 275,
  236, 277,
  236, 278,
  236, 280,
  236, 282,
  236, 284,
  236, 285,
  236, 286,
  236, 287,
  236, 288,
  236, 291,
  236, 292,
  236, 294,
  236, 298,
  236, 299,
  237, 239,
  237, 241,
  237, 242,
  237, 245,
  237, 247,
  237, 251,
  237, 252,
  237, 253,
  237, 256,
  237, 262,
  237, 266,
  237, 267,
  237, 268,
  237, 269,
  237, 275,
  237, 276,
  237, 277,
  237, 278,
  237, 280,
  237, 282,
  237, 287,
  237, 291,
  237, 292,
  237, 294,
  237, 295,
  237, 296,
  237, 297,
  238, 240,
  238, 241,
  238, 243,
  238, 247,
  238, 248,
  238, 253,
  238, 258,
  238, 260,
  238, 261,
  238, 262,
  238, 264,
  238, 266,
  238, 268,
  238, 270,
  238, 271,
  238, 273,
  238, 274,
  238, 276,
  238, 278,
  238, 279,
  238, 284,
  238, 286,
  238, 294,
  238, 297,
  239, 244,
  239, 248,
  239, 249,
  239, 252,
  239, 253,
  239, 258,
  239, 259,
  239, 260,
  239, 264,
  239, 271,
  239, 273,
  239, 276,
  239, 277,
  239, 278,
  239, 279,
  239, 280,
  239, 282,
  239, 289,
  239, 291,
  239, 294,
  239, 297,
  239, 298,
  239, 299,
  239, 300,
  240, 246,
  240, 250,
  240, 251,
  240, 252,
  240, 255,
  240, 256,
  240, 257,
  240, 259,
  240, 260,
  240, 261,
  240, 262,
  240, 263,
  240, 264,
  240, 265,
  240, 266,
  240, 267,
  240, 272,
  240, 277,
  240, 279,
  240, 280,
  240, 281,
  240, 284,
  240, 287,
  240, 288,
  240, 290,
  240, 291,
  240, 294,
  240, 295,
  240, 296,
  240, 298,
  241, 242,
  241, 244,
  241, 245,
  241, 246,
  241, 248,
  241, 250,
  241, 251,
  241, 252,
  241, 253,
  241, 254,
  241, 257,
  241, 258,
  241, 259,
  241, 260,
  241, 261,
  241, 264,
  241, 265,
  241, 266,
  241, 270,
  241, 271,
  241, 272,
  241, 273,
  241, 275,
  241, 278,
  241, 281,
  241, 282,
  241, 285,
  241, 286,
  241, 287,
  241, 288,
  241, 290,
  241, 292,
  241, 294,
  241, 295,
  241, 296,
  242, 243,
  242, 245,
  242, 249,
  242, 251,
  242, 252,
  242, 253,
  242, 254,
  242, 256,
  242, 258,
  242, 260,
  242, 263,
  242, 264,
  242, 266,
  242, 268,
  242, 269,
  242, 272,
  242, 273,
  242, 275,
  242, 277,
  242, 282,
  242, 283,
  242, 286,
  242, 290,
  242, 293,
  242, 294,
  242, 298,
  242, 300,
  243, 245,
  243, 247,
  243, 248,
  243, 250,
  243, 251,
  243, 253,
  243, 254,
  243, 257,
  243, 258,
  243, 259,
  243, 260,
  243, 263,
  243, 267,
  243, 268,
  243, 269,
  243, 271,
  243, 272,
  243, 275,
  243, 276,
  243, 277,
  243, 278,
  243, 279,
  243, 280,
  243, 282,
  243, 283,
  243, 284,
  243, 286,
  243, 290,
  243, 292,
  243, 294,
  243, 295,
  244, 245,
  244, 247,
  244, 248,
  244, 254,
  244, 255,
  244, 256,
  244, 257,
  244, 258,
  244, 259,
  244, 260,
  244, 261,
  244, 262,
  244, 263,
  244, 265,
  244, 266,
  244, 267,
  244, 269,
  244, 270,
  244, 272,
  244, 274,
  244, 275,
  244, 276,
  244, 280,
  244, 281,
  244, 288,
  244, 289,
  244, 292,
  244, 293,
  244, 294,
  244, 299,
  245, 246,
  245, 247,
  245, 248,
  245, 249,
  245, 250,
  245, 251,
  245, 253,
  245, 257,
  245, 259,
  245, 261,
  245, 264,
  245, 265,
  245, 267,
  245, 269,
  245, 271,
  245, 272,
  245, 276,
  245, 277,
  245, 278,
  245, 280,
  245, 286,
  245, 288,
  245, 289,
  245, 290,
  245, 291,
  245, 292,
  245, 293,
  245, 294,
  245, 295,
  245, 296,
  245, 297,
  245, 298,
  246, 249,
  246, 250,
  246, 251,
  246, 252,
  246, 253,
  246, 254,
  246, 255,
  246, 256,
  246, 257,
  246, 258,
  246, 262,
  246, 263,
  246, 264,
  246, 266,
  246, 268,
  246, 269,
  246, 271,
  246, 275,
  246, 276,
  246, 277,
  246, 279,
  246, 281,
  246, 283,
  246, 285,
  246, 286,
  246, 289,
  246, 290,
  246, 294,
  246, 295,
  246, 299,
  247, 251,
  247, 253,
  247, 256,
  247, 257,
  247, 258,
  247, 260,
  247, 262,
  247, 265,
  247, 267,
  247, 274,
  247, 280,
  247, 285,
  247, 286,
  247, 290,
  247, 291,
  247, 293,
  247, 294,
  247, 297,
  247, 298,
  248, 253,
  248, 255,
  248, 256,
  248, 258,
  248, 261,
  248, 263,
  248, 265,
  248, 266,
  248, 269,
  248, 271,
  248, 273,
  248, 274,
  248, 277,
  248, 281,
  248, 282,
  248, 283,
  248, 284,
  248, 286,
  248, 287,
  248, 292,
  248, 294,
  248, 296,
  248, 297,
  248, 298,
  248, 299,
  249, 250,
  249, 251,
  249, 252,
  249, 253,
  249, 254,
  249, 255,
  249, 257,
  249, 258,
  249, 259,
  249, 261,
  249, 266,
  249, 267,
  249, 268,
  249, 269,
  249, 271,
  249, 274,
  249, 275,
  249, 276,
  249, 281,
  249, 282,
  249, 283,
  249, 286,
  249, 288,
  249, 289,
  249, 290,
  249, 292,
  249, 293,
  249, 294,
  249, 297,
  249, 298,
  249, 300,
  250, 251,
  250, 252,
  250, 257,
  250, 258,
  250, 259,
  250, 261,
  250, 262,
  250, 263,
  250, 265,
  250, 266,
  250, 267,
  250, 268,
  250, 269,
  250, 275,
  250, 279,
  250, 280,
  250, 281,
  250, 285,
  250, 287,
  250, 288,
  250, 289,
  250, 290,
  250, 292,
  250, 293,
  250, 294,
  250, 296,
  250, 298,
  251, 252,
  251, 253,
  251, 256,
  251, 258,
  251, 259,
  251, 260,
  251, 261,
  251, 263,
  251, 264,
  251, 265,
  251, 266,
  251, 267,
  251, 269,
  251, 270,
  251, 271,
  251, 272,
  251, 275,
  251, 276,
  251, 277,
  251, 279,
  251, 280,
  251, 281,
  251, 282,
  251, 284,
  251, 285,
  251, 286,
  251, 289,
  251, 290,
  251, 291,
  251, 293,
  251, 294,
  251, 295,
  251, 298,
  251, 299,
  252, 255,
  252, 256,
  252, 257,
  252, 259,
  252, 261,
  252, 262,
  252, 266,
  252, 267,
  252, 268,
  252, 271,
  252, 272,
  252, 274,
  252, 277,
  252, 278,
  252, 279,
  252, 280,
  252, 286,
  252, 287,
  252, 288,
  252, 290,
  252, 291,
  252, 292,
  252, 293,
  252, 295,
  252, 296,
  252, 297,
  253, 254,
  253, 257,
  253, 259,
  253, 261,
  253, 262,
  253, 263,
  253, 264,
  253, 265,
  253, 267,
  253, 268,
  253, 269,
  253, 270,
  253, 272,
  253, 277,
  253, 278,
  253, 279,
  253, 280,
  253, 281,
  253, 282,
  253, 285,
  253, 287,
  253, 288,
  253, 290,
  253, 295,
  253, 298,
  253, 300,
  254, 258,
  254, 259,
  254, 260,
  254, 263,
  254, 264,
  254, 266,
  254, 267,
  254, 268,
  254, 270,
  254, 274,
  254, 277,
  254, 280,
  254, 283,
  254, 284,
  254, 285,
  254, 287,
  254, 289,
  254, 291,
  254, 292,
  254, 293,
  254, 294,
  254, 295,
  254, 297,
  254, 298,
  254, 299,
  254, 300,
  255, 256,
  255, 258,
  255, 261,
  255, 263,
  255, 268,
  255, 272,
  255, 273,
  255, 274,
  255, 277,
  255, 278,
  255, 279,
  255, 282,
  255, 284,
  255, 286,
  255, 287,
  255, 288,
  255, 292,
  255, 293,
  255, 295,
  255, 296,
  256, 257,
  256, 259,
  256, 260,
  256, 261,
  256, 262,
  256, 266,
  256, 268,
  256, 270,
  256, 273,
  256, 275,
  256, 276,
  256, 278,
  256, 281,
  256, 285,
  256, 288,
  256, 290,
  256, 291,
  256, 292,
  256, 296,
  256, 298,
  256, 300,
  257, 259,
  257, 260,
  257, 262,
  257, 264,
  257, 267,
  257, 272,
  257, 274,
  257, 275,
  257, 277,
  257, 278,
  257, 281,
  257, 282,
  257, 283,
  257, 285,
  257, 287,
  257, 288,
  257, 290,
  257, 292,
  257, 293,
  257, 296,
  257, 298,
  258, 262,
  258, 264,
  258, 265,
  258, 267,
  258, 269,
  258, 270,
  258, 273,
  258, 275,
  258, 282,
  258, 283,
  258, 285,
  258, 286,
  258, 289,
  258, 292,
  258, 293,
  258, 294,
  258, 296,
  258, 297,
  259, 262,
  259, 263,
  259, 264,
  259, 266,
  259, 268,
  259, 271,
  259, 273,
  259, 275,
  259, 279,
  259, 280,
  259, 281,
  259, 284,
  259, 286,
  259, 287,
  259, 289,
  259, 291,
  259, 292,
  259, 293,
  259, 294,
  259, 297,
  259, 299,
  259, 300,
  260, 263,
  260, 264,
  260, 266,
  260, 267,
  260, 268,
  260, 271,
  260, 272,
  260, 278,
  260, 280,
  260, 281,
  260, 282,
  260, 283,
  260, 285,
  260, 286,
  260, 287,
  260, 294,
  260, 295,
  260, 298,
  260, 299,
  260, 300,
  261, 262,
  261, 264,
  261, 266,
  261, 268,
  261, 269,
  261, 271,
  261, 273,
  261, 275,
  261, 277,
  261, 281,
  261, 283,
  261, 284,
  261, 288,
  261, 289,
  261, 293,
  261, 297,
  261, 298,
  261, 299,
  262, 264,
  262, 265,
  262, 268,
  262, 271,
  262, 272,
  262, 276,
  262, 278,
  262, 282,
  262, 285,
  262, 286,
  262, 287,
  262, 288,
  262, 294,
  262, 296,
  262, 297,
  262, 298,
  262, 299,
  262, 300,
  263, 265,
  263, 266,
  263, 267,
  263, 270,
  263, 271,
  263, 279,
  263, 281,
  263, 283,
  263, 288,
  263, 290,
  263, 291,
  263, 292,
  263, 297,
  263, 299,
  264, 265,
  264, 266,
  264, 270,
  264, 271,
  264, 272,
  264, 275,
  264, 277,
  264, 280,
  264, 281,
  264, 282,
  264, 283,
  264, 284,
  264, 287,
  264, 289,
  264, 290,
  264, 292,
  264, 294,
  264, 295,
  264, 298,
  264, 300,
  265, 267,
  265, 268,
  265, 272,
  265, 274,
  265, 275,
  265, 278,
  265, 280,
  265, 283,
  265, 284,
  265, 285,
  265, 287,
  265, 288,
  265, 289,
  265, 291,
  265, 293,
  265, 295,
  265, 296,
  265, 297,
  265, 298,
  265, 299,
  266, 267,
  266, 272,
  266, 274,
  266, 275,
  266, 280,
  266, 283,
  266, 284,
  266, 288,
  266, 289,
  266, 291,
  266, 295,
  266, 296,
  266, 299,
  266, 300,
  267, 268,
  267, 269,
  267, 272,
  267, 273,
  267, 275,
  267, 277,
  267, 281,
  267, 287,
  267, 288,
  267, 291,
  267, 292,
  267, 296,
  267, 298,
  268, 270,
  268, 272,
  268, 273,
  268, 274,
  268, 276,
  268, 278,
  268, 279,
  268, 280,
  268, 281,
  268, 283,
  268, 284,
  268, 286,
  268, 288,
  268, 289,
  268, 291,
  268, 295,
  268, 296,
  268, 297,
  269, 270,
  269, 271,
  269, 272,
  269, 273,
  269, 274,
  269, 275,
  269, 276,
  269, 279,
  269, 280,
  269, 281,
  269, 284,
  269, 286,
  269, 288,
  269, 289,
  269, 291,
  269, 294,
  269, 295,
  269, 296,
  269, 297,
  269, 299,
  270, 272,
  270, 273,
  270, 274,
  270, 282,
  270, 291,
  270, 293,
  270, 297,
  270, 299,
  271, 272,
  271, 273,
  271, 277,
  271, 281,
  271, 282,
  271, 283,
  271, 285,
  271, 287,
  271, 290,
  271, 294,
  271, 295,
  271, 297,
  271, 298,
  272, 274,
  272, 278,
  272, 282,
  272, 283,
  272, 284,
  272, 286,
  272, 287,
  272, 288,
  272, 289,
  272, 290,
  272, 294,
  272, 295,
  272, 296,
  272, 297,
  272, 299,
  272, 300,
  273, 274,
  273, 275,
  273, 277,
  273, 279,
  273, 280,
  273, 284,
  273, 288,
  273, 289,
  273, 290,
  273, 294,
  273, 298,
  273, 300,
  274, 276,
  274, 277,
  274, 278,
  274, 279,
  274, 282,
  274, 288,
  274, 289,
  274, 293,
  274, 295,
  274, 297,
  274, 298,
  274, 299,
  275, 276,
  275, 277,
  275, 281,
  275, 282,
  275, 283,
  275, 286,
  275, 288,
  275, 290,
  275, 291,
  275, 292,
  275, 293,
  275, 294,
  275, 297,
  275, 298,
  276, 277,
  276, 279,
  276, 281,
  276, 282,
  276, 283,
  276, 284,
  276, 285,
  276, 286,
  276, 287,
  276, 289,
  276, 295,
  276, 296,
  276, 297,
  276, 299,
  277, 278,
  277, 281,
  277, 282,
  277, 283,
  277, 285,
  277, 286,
  277, 288,
  277, 289,
  277, 291,
  277, 292,
  277, 296,
  277, 298,
  277, 299,
  278, 281,
  278, 283,
  278, 284,
  278, 285,
  278, 287,
  278, 288,
  278, 289,
  278, 290,
  278, 291,
  278, 293,
  278, 294,
  278, 296,
  278, 298,
  278, 299,
  278, 300,
  279, 281,
  279, 283,
  279, 285,
  279, 286,
  279, 288,
  279, 290,
  279, 293,
  279, 295,
  279, 296,
  279, 297,
  279, 298,
  279, 300,
  280, 283,
  280, 284,
  280, 286,
  280, 289,
  280, 293,
  280, 295,
  280, 296,
  280, 297,
  280, 299,
  281, 282,
  281, 283,
  281, 289,
  281, 290,
  281, 292,
  281, 293,
  281, 294,
  281, 295,
  281, 296,
  281, 297,
  281, 299,
  281, 300,
  282, 283,
  282, 284,
  282, 288,
  282, 289,
  282, 290,
  282, 294,
  282, 295,
  282, 296,
  283, 284,
  283, 285,
  283, 290,
  283, 292,
  283, 294,
  283, 296,
  283, 298,
  283, 299,
  283, 300,
  284, 285,
  284, 287,
  284, 288,
  284, 289,
  284, 290,
  284, 291,
  284, 292,
  284, 295,
  284, 297,
  284, 299,
  284, 300,
  285, 286,
  285, 287,
  285, 290,
  285, 292,
  285, 300,
  286, 288,
  286, 293,
  286, 294,
  286, 295,
  287, 288,
  287, 289,
  287, 292,
  287, 294,
  287, 296,
  287, 297,
  287, 300,
  288, 291,
  288, 292,
  288, 293,
  288, 294,
  288, 297,
  288, 300,
  289, 292,
  289, 294,
  289, 296,
  289, 298,
  289, 299,
  289, 300,
  290, 292,
  290, 295,
  290, 297,
  290, 298,
  290, 299,
  290, 300,
  291, 293,
  291, 294,
  291, 296,
  291, 297,
  291, 299,
  292, 294,
  292, 299,
  293, 296,
  293, 297,
  293, 298,
  293, 300,
  294, 295,
  294, 297,
  294, 298,
  295, 296,
  295, 297,
  295, 298,
  296, 297,
  296, 298,
  296, 300,
  298, 299
]);
