n = 200;
k = 200;
m = 9887;
edges = array2d(1..m, 1..2, [
  1, 2,
  1, 3,
  1, 4,
  1, 5,
  1, 6,
  1, 7,
  1, 10,
  1, 11,
  1, 12,
  1, 13,
  1, 14,
  1, 15,
  1, 16,
  1, 17,
  1, 19,
  1, 20,
  1, 21,
  1, 22,
  1, 23,
  1, 24,
  1, 25,
  1, 26,
  1, 27,
  1, 28,
  1, 31,
  1, 32,
  1, 33,
  1, 34,
  1, 37,
  1, 39,
  1, 41,
  1, 43,
  1, 44,
  1, 45,
  1, 46,
  1, 47,
  1, 48,
  1, 49,
  1, 50,
  1, 51,
  1, 55,
  1, 56,
  1, 59,
  1, 60,
  1, 64,
  1, 65,
  1, 68,
  1, 69,
  1, 73,
  1, 77,
  1, 83,
  1, 85,
  1, 86,
  1, 90,
  1, 94,
  1, 98,
  1, 99,
  1, 103,
  1, 104,
  1, 107,
  1, 108,
  1, 110,
  1, 111,
  1, 114,
  1, 115,
  1, 116,
  1, 117,
  1, 118,
  1, 119,
  1, 128,
  1, 129,
  1, 131,
  1, 132,
  1, 133,
  1, 135,
  1, 139,
  1, 140,
  1, 142,
  1, 144,
  1, 146,
  1, 147,
  1, 149,
  1, 153,
  1, 157,
  1, 158,
  1, 159,
  1, 161,
  1, 162,
  1, 163,
  1, 164,
  1, 165,
  1, 166,
  1, 167,
  1, 171,
  1, 172,
  1, 174,
  1, 175,
  1, 176,
  1, 178,
  1, 181,
  1, 186,
  1, 187,
  1, 188,
  1, 189,
  1, 190,
  1, 191,
  1, 193,
  1, 196,
  2, 6,
  2, 7,
  2, 9,
  2, 11,
  2, 12,
  2, 13,
  2, 15,
  2, 16,
  2, 17,
  2, 18,
  2, 23,
  2, 24,
  2, 26,
  2, 28,
  2, 30,
  2, 32,
  2, 34,
  2, 36,
  2, 37,
  2, 38,
  2, 39,
  2, 40,
  2, 48,
  2, 49,
  2, 54,
  2, 55,
  2, 56,
  2, 57,
  2, 59,
  2, 60,
  2, 66,
  2, 67,
  2, 68,
  2, 70,
  2, 71,
  2, 72,
  2, 73,
  2, 74,
  2, 75,
  2, 76,
  2, 77,
  2, 78,
  2, 79,
  2, 81,
  2, 82,
  2, 92,
  2, 93,
  2, 95,
  2, 96,
  2, 97,
  2, 98,
  2, 99,
  2, 102,
  2, 104,
  2, 105,
  2, 107,
  2, 111,
  2, 114,
  2, 115,
  2, 117,
  2, 121,
  2, 128,
  2, 131,
  2, 132,
  2, 133,
  2, 137,
  2, 138,
  2, 140,
  2, 141,
  2, 142,
  2, 144,
  2, 148,
  2, 150,
  2, 151,
  2, 153,
  2, 154,
  2, 156,
  2, 157,
  2, 158,
  2, 159,
  2, 163,
  2, 164,
  2, 167,
  2, 168,
  2, 171,
  2, 172,
  2, 173,
  2, 176,
  2, 177,
  2, 180,
  2, 183,
  2, 186,
  2, 187,
  2, 188,
  2, 192,
  2, 193,
  2, 196,
  2, 199,
  3, 5,
  3, 8,
  3, 11,
  3, 12,
  3, 14,
  3, 15,
  3, 17,
  3, 18,
  3, 21,
  3, 23,
  3, 24,
  3, 28,
  3, 29,
  3, 30,
  3, 32,
  3, 39,
  3, 40,
  3, 44,
  3, 45,
  3, 49,
  3, 50,
  3, 55,
  3, 56,
  3, 59,
  3, 64,
  3, 70,
  3, 74,
  3, 75,
  3, 77,
  3, 85,
  3, 87,
  3, 89,
  3, 90,
  3, 96,
  3, 97,
  3, 99,
  3, 101,
  3, 103,
  3, 106,
  3, 107,
  3, 108,
  3, 111,
  3, 112,
  3, 115,
  3, 117,
  3, 121,
  3, 125,
  3, 126,
  3, 129,
  3, 135,
  3, 136,
  3, 137,
  3, 141,
  3, 142,
  3, 144,
  3, 145,
  3, 146,
  3, 147,
  3, 148,
  3, 153,
  3, 154,
  3, 158,
  3, 159,
  3, 161,
  3, 162,
  3, 164,
  3, 165,
  3, 169,
  3, 171,
  3, 172,
  3, 173,
  3, 174,
  3, 177,
  3, 178,
  3, 181,
  3, 182,
  3, 183,
  3, 184,
  3, 186,
  3, 189,
  3, 194,
  3, 197,
  3, 199,
  4, 5,
  4, 6,
  4, 7,
  4, 8,
  4, 9,
  4, 10,
  4, 11,
  4, 12,
  4, 13,
  4, 14,
  4, 15,
  4, 17,
  4, 25,
  4, 26,
  4, 27,
  4, 31,
  4, 37,
  4, 38,
  4, 40,
  4, 42,
  4, 43,
  4, 44,
  4, 47,
  4, 48,
  4, 49,
  4, 54,
  4, 56,
  4, 57,
  4, 62,
  4, 63,
  4, 64,
  4, 69,
  4, 74,
  4, 78,
  4, 80,
  4, 84,
  4, 88,
  4, 90,
  4, 91,
  4, 94,
  4, 102,
  4, 106,
  4, 107,
  4, 108,
  4, 109,
  4, 110,
  4, 111,
  4, 112,
  4, 113,
  4, 114,
  4, 116,
  4, 118,
  4, 119,
  4, 122,
  4, 125,
  4, 129,
  4, 130,
  4, 131,
  4, 132,
  4, 134,
  4, 135,
  4, 136,
  4, 139,
  4, 141,
  4, 146,
  4, 147,
  4, 149,
  4, 150,
  4, 153,
  4, 155,
  4, 158,
  4, 159,
  4, 160,
  4, 161,
  4, 163,
  4, 166,
  4, 167,
  4, 170,
  4, 172,
  4, 178,
  4, 180,
  4, 183,
  4, 185,
  4, 187,
  4, 188,
  4, 189,
  4, 190,
  4, 191,
  4, 192,
  4, 198,
  4, 200,
  5, 6,
  5, 7,
  5, 9,
  5, 15,
  5, 20,
  5, 23,
  5, 25,
  5, 26,
  5, 27,
  5, 28,
  5, 29,
  5, 30,
  5, 33,
  5, 35,
  5, 36,
  5, 38,
  5, 40,
  5, 41,
  5, 44,
  5, 46,
  5, 47,
  5, 48,
  5, 50,
  5, 51,
  5, 52,
  5, 53,
  5, 56,
  5, 61,
  5, 62,
  5, 64,
  5, 68,
  5, 70,
  5, 75,
  5, 77,
  5, 80,
  5, 82,
  5, 83,
  5, 85,
  5, 88,
  5, 89,
  5, 90,
  5, 91,
  5, 93,
  5, 96,
  5, 100,
  5, 101,
  5, 102,
  5, 103,
  5, 104,
  5, 105,
  5, 108,
  5, 109,
  5, 110,
  5, 113,
  5, 115,
  5, 116,
  5, 117,
  5, 118,
  5, 119,
  5, 121,
  5, 123,
  5, 124,
  5, 126,
  5, 127,
  5, 128,
  5, 129,
  5, 133,
  5, 134,
  5, 135,
  5, 136,
  5, 139,
  5, 140,
  5, 141,
  5, 142,
  5, 143,
  5, 144,
  5, 145,
  5, 150,
  5, 153,
  5, 160,
  5, 161,
  5, 162,
  5, 164,
  5, 167,
  5, 168,
  5, 174,
  5, 175,
  5, 178,
  5, 182,
  5, 185,
  5, 187,
  5, 188,
  5, 189,
  5, 190,
  5, 191,
  5, 197,
  5, 198,
  5, 200,
  6, 7,
  6, 8,
  6, 10,
  6, 12,
  6, 13,
  6, 15,
  6, 16,
  6, 18,
  6, 19,
  6, 20,
  6, 21,
  6, 22,
  6, 23,
  6, 28,
  6, 29,
  6, 31,
  6, 33,
  6, 36,
  6, 37,
  6, 39,
  6, 40,
  6, 41,
  6, 43,
  6, 45,
  6, 47,
  6, 50,
  6, 51,
  6, 53,
  6, 56,
  6, 57,
  6, 58,
  6, 59,
  6, 60,
  6, 62,
  6, 64,
  6, 66,
  6, 71,
  6, 73,
  6, 74,
  6, 76,
  6, 78,
  6, 80,
  6, 81,
  6, 83,
  6, 86,
  6, 90,
  6, 92,
  6, 95,
  6, 97,
  6, 98,
  6, 99,
  6, 101,
  6, 102,
  6, 104,
  6, 105,
  6, 106,
  6, 107,
  6, 108,
  6, 109,
  6, 111,
  6, 112,
  6, 113,
  6, 115,
  6, 118,
  6, 119,
  6, 120,
  6, 122,
  6, 123,
  6, 124,
  6, 125,
  6, 126,
  6, 128,
  6, 132,
  6, 133,
  6, 134,
  6, 135,
  6, 136,
  6, 137,
  6, 139,
  6, 142,
  6, 143,
  6, 144,
  6, 146,
  6, 147,
  6, 149,
  6, 151,
  6, 156,
  6, 159,
  6, 162,
  6, 163,
  6, 167,
  6, 169,
  6, 171,
  6, 172,
  6, 175,
  6, 177,
  6, 178,
  6, 179,
  6, 183,
  6, 184,
  6, 186,
  6, 187,
  6, 189,
  6, 191,
  6, 193,
  6, 195,
  6, 196,
  7, 9,
  7, 10,
  7, 12,
  7, 13,
  7, 14,
  7, 15,
  7, 16,
  7, 18,
  7, 19,
  7, 20,
  7, 22,
  7, 28,
  7, 29,
  7, 30,
  7, 36,
  7, 37,
  7, 38,
  7, 43,
  7, 45,
  7, 47,
  7, 48,
  7, 49,
  7, 50,
  7, 52,
  7, 56,
  7, 57,
  7, 60,
  7, 63,
  7, 68,
  7, 69,
  7, 71,
  7, 77,
  7, 79,
  7, 80,
  7, 82,
  7, 83,
  7, 85,
  7, 88,
  7, 91,
  7, 92,
  7, 93,
  7, 95,
  7, 96,
  7, 102,
  7, 103,
  7, 105,
  7, 107,
  7, 112,
  7, 116,
  7, 117,
  7, 118,
  7, 121,
  7, 123,
  7, 124,
  7, 126,
  7, 127,
  7, 129,
  7, 130,
  7, 131,
  7, 134,
  7, 135,
  7, 137,
  7, 140,
  7, 142,
  7, 144,
  7, 145,
  7, 147,
  7, 148,
  7, 149,
  7, 150,
  7, 152,
  7, 153,
  7, 157,
  7, 158,
  7, 162,
  7, 163,
  7, 165,
  7, 166,
  7, 167,
  7, 168,
  7, 169,
  7, 170,
  7, 172,
  7, 173,
  7, 174,
  7, 177,
  7, 181,
  7, 182,
  7, 183,
  7, 184,
  7, 185,
  7, 186,
  7, 194,
  7, 195,
  7, 196,
  7, 197,
  7, 198,
  7, 199,
  7, 200,
  8, 11,
  8, 12,
  8, 13,
  8, 15,
  8, 17,
  8, 19,
  8, 21,
  8, 22,
  8, 23,
  8, 24,
  8, 25,
  8, 26,
  8, 29,
  8, 31,
  8, 32,
  8, 34,
  8, 35,
  8, 36,
  8, 38,
  8, 39,
  8, 41,
  8, 43,
  8, 44,
  8, 46,
  8, 48,
  8, 53,
  8, 56,
  8, 58,
  8, 60,
  8, 62,
  8, 63,
  8, 64,
  8, 65,
  8, 67,
  8, 70,
  8, 74,
  8, 75,
  8, 78,
  8, 80,
  8, 81,
  8, 82,
  8, 83,
  8, 85,
  8, 87,
  8, 91,
  8, 92,
  8, 93,
  8, 96,
  8, 99,
  8, 101,
  8, 107,
  8, 108,
  8, 110,
  8, 120,
  8, 124,
  8, 128,
  8, 129,
  8, 130,
  8, 131,
  8, 133,
  8, 134,
  8, 135,
  8, 141,
  8, 142,
  8, 144,
  8, 148,
  8, 149,
  8, 151,
  8, 157,
  8, 159,
  8, 160,
  8, 162,
  8, 163,
  8, 164,
  8, 166,
  8, 169,
  8, 170,
  8, 171,
  8, 172,
  8, 173,
  8, 175,
  8, 176,
  8, 177,
  8, 178,
  8, 183,
  8, 185,
  8, 186,
  8, 187,
  8, 196,
  8, 197,
  8, 198,
  8, 199,
  8, 200,
  9, 13,
  9, 15,
  9, 19,
  9, 20,
  9, 21,
  9, 22,
  9, 26,
  9, 28,
  9, 32,
  9, 33,
  9, 34,
  9, 38,
  9, 41,
  9, 43,
  9, 44,
  9, 45,
  9, 46,
  9, 47,
  9, 51,
  9, 52,
  9, 53,
  9, 55,
  9, 56,
  9, 59,
  9, 61,
  9, 62,
  9, 64,
  9, 65,
  9, 66,
  9, 67,
  9, 69,
  9, 70,
  9, 74,
  9, 75,
  9, 76,
  9, 79,
  9, 80,
  9, 82,
  9, 87,
  9, 88,
  9, 89,
  9, 92,
  9, 94,
  9, 96,
  9, 97,
  9, 99,
  9, 100,
  9, 102,
  9, 103,
  9, 104,
  9, 105,
  9, 106,
  9, 109,
  9, 113,
  9, 117,
  9, 118,
  9, 119,
  9, 120,
  9, 121,
  9, 122,
  9, 123,
  9, 125,
  9, 126,
  9, 128,
  9, 129,
  9, 130,
  9, 131,
  9, 133,
  9, 135,
  9, 136,
  9, 137,
  9, 138,
  9, 140,
  9, 141,
  9, 142,
  9, 146,
  9, 151,
  9, 152,
  9, 153,
  9, 155,
  9, 158,
  9, 159,
  9, 162,
  9, 166,
  9, 167,
  9, 168,
  9, 172,
  9, 174,
  9, 176,
  9, 179,
  9, 181,
  9, 183,
  9, 184,
  9, 186,
  9, 187,
  9, 189,
  9, 190,
  9, 191,
  9, 193,
  9, 195,
  9, 196,
  9, 200,
  10, 12,
  10, 13,
  10, 16,
  10, 17,
  10, 23,
  10, 24,
  10, 25,
  10, 26,
  10, 28,
  10, 30,
  10, 32,
  10, 33,
  10, 36,
  10, 38,
  10, 39,
  10, 40,
  10, 42,
  10, 43,
  10, 47,
  10, 49,
  10, 50,
  10, 51,
  10, 52,
  10, 56,
  10, 60,
  10, 61,
  10, 64,
  10, 67,
  10, 70,
  10, 74,
  10, 75,
  10, 76,
  10, 77,
  10, 79,
  10, 80,
  10, 81,
  10, 83,
  10, 84,
  10, 87,
  10, 88,
  10, 90,
  10, 92,
  10, 93,
  10, 96,
  10, 97,
  10, 98,
  10, 101,
  10, 103,
  10, 104,
  10, 105,
  10, 108,
  10, 112,
  10, 114,
  10, 120,
  10, 122,
  10, 123,
  10, 126,
  10, 128,
  10, 129,
  10, 131,
  10, 134,
  10, 135,
  10, 136,
  10, 141,
  10, 142,
  10, 143,
  10, 144,
  10, 145,
  10, 146,
  10, 149,
  10, 150,
  10, 151,
  10, 154,
  10, 155,
  10, 156,
  10, 157,
  10, 159,
  10, 160,
  10, 163,
  10, 165,
  10, 166,
  10, 167,
  10, 168,
  10, 169,
  10, 170,
  10, 178,
  10, 180,
  10, 181,
  10, 183,
  10, 185,
  10, 187,
  10, 188,
  10, 190,
  10, 191,
  10, 192,
  10, 193,
  10, 195,
  10, 196,
  10, 197,
  10, 199,
  10, 200,
  11, 13,
  11, 14,
  11, 16,
  11, 19,
  11, 20,
  11, 22,
  11, 25,
  11, 27,
  11, 28,
  11, 37,
  11, 38,
  11, 40,
  11, 41,
  11, 43,
  11, 45,
  11, 49,
  11, 50,
  11, 51,
  11, 52,
  11, 53,
  11, 54,
  11, 55,
  11, 61,
  11, 62,
  11, 65,
  11, 66,
  11, 68,
  11, 70,
  11, 73,
  11, 74,
  11, 76,
  11, 78,
  11, 80,
  11, 81,
  11, 82,
  11, 83,
  11, 84,
  11, 85,
  11, 86,
  11, 92,
  11, 94,
  11, 95,
  11, 98,
  11, 100,
  11, 103,
  11, 105,
  11, 107,
  11, 108,
  11, 109,
  11, 112,
  11, 115,
  11, 119,
  11, 120,
  11, 121,
  11, 122,
  11, 123,
  11, 124,
  11, 126,
  11, 127,
  11, 130,
  11, 132,
  11, 134,
  11, 135,
  11, 137,
  11, 141,
  11, 142,
  11, 143,
  11, 144,
  11, 146,
  11, 148,
  11, 149,
  11, 151,
  11, 152,
  11, 153,
  11, 156,
  11, 158,
  11, 162,
  11, 163,
  11, 164,
  11, 165,
  11, 166,
  11, 168,
  11, 169,
  11, 172,
  11, 173,
  11, 174,
  11, 178,
  11, 182,
  11, 185,
  11, 187,
  11, 192,
  11, 193,
  11, 196,
  11, 199,
  11, 200,
  12, 14,
  12, 15,
  12, 17,
  12, 18,
  12, 19,
  12, 20,
  12, 22,
  12, 27,
  12, 28,
  12, 30,
  12, 31,
  12, 32,
  12, 34,
  12, 36,
  12, 38,
  12, 40,
  12, 41,
  12, 43,
  12, 44,
  12, 47,
  12, 48,
  12, 49,
  12, 50,
  12, 51,
  12, 53,
  12, 59,
  12, 67,
  12, 69,
  12, 70,
  12, 73,
  12, 77,
  12, 78,
  12, 79,
  12, 81,
  12, 82,
  12, 83,
  12, 85,
  12, 87,
  12, 92,
  12, 94,
  12, 95,
  12, 97,
  12, 99,
  12, 100,
  12, 102,
  12, 103,
  12, 106,
  12, 107,
  12, 108,
  12, 109,
  12, 112,
  12, 113,
  12, 114,
  12, 116,
  12, 117,
  12, 118,
  12, 120,
  12, 123,
  12, 125,
  12, 126,
  12, 127,
  12, 129,
  12, 134,
  12, 135,
  12, 138,
  12, 140,
  12, 141,
  12, 142,
  12, 144,
  12, 149,
  12, 150,
  12, 155,
  12, 159,
  12, 161,
  12, 166,
  12, 168,
  12, 169,
  12, 170,
  12, 173,
  12, 174,
  12, 178,
  12, 184,
  12, 185,
  12, 186,
  12, 187,
  12, 188,
  12, 190,
  12, 191,
  12, 192,
  12, 194,
  12, 195,
  12, 196,
  12, 197,
  12, 198,
  12, 200,
  13, 16,
  13, 17,
  13, 20,
  13, 23,
  13, 28,
  13, 29,
  13, 33,
  13, 35,
  13, 40,
  13, 41,
  13, 42,
  13, 44,
  13, 49,
  13, 50,
  13, 51,
  13, 53,
  13, 54,
  13, 56,
  13, 60,
  13, 61,
  13, 64,
  13, 65,
  13, 69,
  13, 70,
  13, 72,
  13, 76,
  13, 77,
  13, 80,
  13, 81,
  13, 82,
  13, 86,
  13, 88,
  13, 90,
  13, 91,
  13, 92,
  13, 93,
  13, 96,
  13, 97,
  13, 98,
  13, 101,
  13, 104,
  13, 105,
  13, 107,
  13, 110,
  13, 115,
  13, 116,
  13, 117,
  13, 119,
  13, 120,
  13, 121,
  13, 123,
  13, 124,
  13, 130,
  13, 131,
  13, 132,
  13, 134,
  13, 135,
  13, 137,
  13, 138,
  13, 140,
  13, 141,
  13, 142,
  13, 148,
  13, 150,
  13, 151,
  13, 152,
  13, 155,
  13, 157,
  13, 158,
  13, 159,
  13, 164,
  13, 165,
  13, 167,
  13, 168,
  13, 169,
  13, 170,
  13, 172,
  13, 173,
  13, 176,
  13, 179,
  13, 180,
  13, 181,
  13, 182,
  13, 189,
  13, 190,
  13, 191,
  13, 192,
  13, 195,
  13, 196,
  13, 197,
  13, 199,
  14, 16,
  14, 20,
  14, 23,
  14, 24,
  14, 26,
  14, 27,
  14, 28,
  14, 29,
  14, 32,
  14, 33,
  14, 34,
  14, 35,
  14, 36,
  14, 38,
  14, 39,
  14, 43,
  14, 44,
  14, 58,
  14, 59,
  14, 62,
  14, 63,
  14, 68,
  14, 69,
  14, 70,
  14, 71,
  14, 73,
  14, 76,
  14, 81,
  14, 83,
  14, 85,
  14, 87,
  14, 88,
  14, 91,
  14, 92,
  14, 95,
  14, 96,
  14, 100,
  14, 102,
  14, 103,
  14, 104,
  14, 105,
  14, 109,
  14, 116,
  14, 121,
  14, 122,
  14, 123,
  14, 124,
  14, 125,
  14, 127,
  14, 128,
  14, 129,
  14, 132,
  14, 133,
  14, 134,
  14, 135,
  14, 137,
  14, 139,
  14, 141,
  14, 149,
  14, 151,
  14, 161,
  14, 162,
  14, 165,
  14, 168,
  14, 170,
  14, 171,
  14, 172,
  14, 173,
  14, 175,
  14, 176,
  14, 177,
  14, 179,
  14, 180,
  14, 181,
  14, 182,
  14, 184,
  14, 185,
  14, 186,
  14, 187,
  14, 189,
  14, 196,
  15, 17,
  15, 18,
  15, 21,
  15, 24,
  15, 25,
  15, 27,
  15, 28,
  15, 29,
  15, 30,
  15, 31,
  15, 33,
  15, 34,
  15, 35,
  15, 39,
  15, 43,
  15, 44,
  15, 50,
  15, 51,
  15, 54,
  15, 55,
  15, 56,
  15, 57,
  15, 58,
  15, 59,
  15, 60,
  15, 64,
  15, 72,
  15, 73,
  15, 74,
  15, 78,
  15, 80,
  15, 81,
  15, 82,
  15, 84,
  15, 85,
  15, 87,
  15, 89,
  15, 92,
  15, 93,
  15, 95,
  15, 96,
  15, 97,
  15, 100,
  15, 103,
  15, 105,
  15, 110,
  15, 112,
  15, 114,
  15, 116,
  15, 120,
  15, 121,
  15, 122,
  15, 123,
  15, 124,
  15, 125,
  15, 126,
  15, 128,
  15, 129,
  15, 130,
  15, 131,
  15, 133,
  15, 134,
  15, 137,
  15, 143,
  15, 145,
  15, 146,
  15, 148,
  15, 153,
  15, 155,
  15, 156,
  15, 157,
  15, 158,
  15, 159,
  15, 161,
  15, 163,
  15, 164,
  15, 165,
  15, 168,
  15, 173,
  15, 174,
  15, 175,
  15, 176,
  15, 177,
  15, 180,
  15, 181,
  15, 183,
  15, 185,
  15, 186,
  15, 188,
  15, 190,
  15, 192,
  15, 194,
  15, 197,
  15, 199,
  16, 19,
  16, 20,
  16, 23,
  16, 27,
  16, 29,
  16, 32,
  16, 36,
  16, 40,
  16, 43,
  16, 46,
  16, 47,
  16, 48,
  16, 49,
  16, 52,
  16, 53,
  16, 55,
  16, 56,
  16, 59,
  16, 60,
  16, 61,
  16, 62,
  16, 64,
  16, 65,
  16, 74,
  16, 78,
  16, 80,
  16, 83,
  16, 84,
  16, 86,
  16, 88,
  16, 93,
  16, 95,
  16, 96,
  16, 97,
  16, 98,
  16, 100,
  16, 101,
  16, 103,
  16, 106,
  16, 108,
  16, 109,
  16, 110,
  16, 111,
  16, 113,
  16, 114,
  16, 115,
  16, 116,
  16, 118,
  16, 119,
  16, 122,
  16, 125,
  16, 126,
  16, 127,
  16, 128,
  16, 130,
  16, 131,
  16, 135,
  16, 136,
  16, 137,
  16, 138,
  16, 140,
  16, 141,
  16, 142,
  16, 143,
  16, 146,
  16, 147,
  16, 148,
  16, 152,
  16, 153,
  16, 154,
  16, 158,
  16, 162,
  16, 163,
  16, 164,
  16, 166,
  16, 167,
  16, 168,
  16, 169,
  16, 170,
  16, 171,
  16, 173,
  16, 178,
  16, 180,
  16, 181,
  16, 184,
  16, 185,
  16, 186,
  16, 187,
  16, 189,
  16, 190,
  17, 19,
  17, 20,
  17, 23,
  17, 24,
  17, 25,
  17, 34,
  17, 38,
  17, 39,
  17, 43,
  17, 48,
  17, 53,
  17, 54,
  17, 55,
  17, 56,
  17, 57,
  17, 59,
  17, 60,
  17, 61,
  17, 62,
  17, 63,
  17, 64,
  17, 66,
  17, 69,
  17, 70,
  17, 73,
  17, 74,
  17, 75,
  17, 77,
  17, 78,
  17, 80,
  17, 82,
  17, 83,
  17, 84,
  17, 87,
  17, 89,
  17, 90,
  17, 92,
  17, 93,
  17, 95,
  17, 97,
  17, 98,
  17, 102,
  17, 104,
  17, 106,
  17, 110,
  17, 111,
  17, 117,
  17, 118,
  17, 119,
  17, 120,
  17, 121,
  17, 124,
  17, 125,
  17, 126,
  17, 127,
  17, 128,
  17, 131,
  17, 134,
  17, 138,
  17, 140,
  17, 141,
  17, 143,
  17, 145,
  17, 146,
  17, 147,
  17, 148,
  17, 150,
  17, 153,
  17, 154,
  17, 155,
  17, 156,
  17, 159,
  17, 160,
  17, 163,
  17, 165,
  17, 170,
  17, 173,
  17, 174,
  17, 176,
  17, 177,
  17, 180,
  17, 182,
  17, 183,
  17, 184,
  17, 185,
  17, 187,
  17, 188,
  17, 194,
  17, 195,
  17, 197,
  17, 199,
  18, 20,
  18, 24,
  18, 26,
  18, 30,
  18, 32,
  18, 33,
  18, 34,
  18, 35,
  18, 39,
  18, 40,
  18, 42,
  18, 43,
  18, 48,
  18, 51,
  18, 53,
  18, 54,
  18, 55,
  18, 59,
  18, 60,
  18, 61,
  18, 62,
  18, 63,
  18, 70,
  18, 71,
  18, 74,
  18, 75,
  18, 78,
  18, 80,
  18, 81,
  18, 86,
  18, 87,
  18, 89,
  18, 95,
  18, 97,
  18, 98,
  18, 100,
  18, 104,
  18, 105,
  18, 106,
  18, 109,
  18, 110,
  18, 111,
  18, 112,
  18, 113,
  18, 114,
  18, 116,
  18, 118,
  18, 119,
  18, 121,
  18, 122,
  18, 123,
  18, 125,
  18, 126,
  18, 127,
  18, 128,
  18, 130,
  18, 131,
  18, 135,
  18, 139,
  18, 141,
  18, 143,
  18, 144,
  18, 145,
  18, 146,
  18, 147,
  18, 150,
  18, 151,
  18, 152,
  18, 156,
  18, 157,
  18, 164,
  18, 167,
  18, 168,
  18, 172,
  18, 173,
  18, 176,
  18, 177,
  18, 178,
  18, 180,
  18, 184,
  18, 185,
  18, 186,
  18, 188,
  18, 189,
  18, 190,
  18, 192,
  18, 195,
  18, 199,
  18, 200,
  19, 21,
  19, 22,
  19, 25,
  19, 26,
  19, 28,
  19, 30,
  19, 32,
  19, 34,
  19, 36,
  19, 38,
  19, 41,
  19, 42,
  19, 46,
  19, 48,
  19, 49,
  19, 50,
  19, 51,
  19, 53,
  19, 54,
  19, 55,
  19, 57,
  19, 58,
  19, 59,
  19, 61,
  19, 63,
  19, 64,
  19, 66,
  19, 70,
  19, 71,
  19, 72,
  19, 77,
  19, 80,
  19, 83,
  19, 86,
  19, 89,
  19, 90,
  19, 94,
  19, 98,
  19, 100,
  19, 101,
  19, 102,
  19, 104,
  19, 105,
  19, 108,
  19, 110,
  19, 111,
  19, 113,
  19, 117,
  19, 118,
  19, 119,
  19, 121,
  19, 123,
  19, 125,
  19, 129,
  19, 130,
  19, 131,
  19, 132,
  19, 133,
  19, 136,
  19, 137,
  19, 139,
  19, 140,
  19, 141,
  19, 143,
  19, 144,
  19, 145,
  19, 148,
  19, 149,
  19, 150,
  19, 154,
  19, 155,
  19, 156,
  19, 157,
  19, 162,
  19, 167,
  19, 168,
  19, 172,
  19, 173,
  19, 174,
  19, 178,
  19, 179,
  19, 180,
  19, 181,
  19, 182,
  19, 185,
  19, 186,
  19, 187,
  19, 188,
  19, 190,
  19, 192,
  19, 193,
  19, 194,
  19, 196,
  20, 21,
  20, 23,
  20, 24,
  20, 25,
  20, 27,
  20, 28,
  20, 30,
  20, 32,
  20, 36,
  20, 38,
  20, 39,
  20, 40,
  20, 42,
  20, 43,
  20, 45,
  20, 46,
  20, 48,
  20, 49,
  20, 52,
  20, 54,
  20, 55,
  20, 57,
  20, 58,
  20, 59,
  20, 60,
  20, 61,
  20, 63,
  20, 64,
  20, 66,
  20, 67,
  20, 69,
  20, 72,
  20, 73,
  20, 74,
  20, 79,
  20, 80,
  20, 82,
  20, 83,
  20, 86,
  20, 88,
  20, 90,
  20, 92,
  20, 96,
  20, 97,
  20, 98,
  20, 100,
  20, 102,
  20, 105,
  20, 111,
  20, 112,
  20, 114,
  20, 116,
  20, 117,
  20, 118,
  20, 120,
  20, 121,
  20, 123,
  20, 125,
  20, 128,
  20, 132,
  20, 134,
  20, 136,
  20, 137,
  20, 138,
  20, 139,
  20, 142,
  20, 144,
  20, 145,
  20, 148,
  20, 154,
  20, 155,
  20, 156,
  20, 158,
  20, 159,
  20, 162,
  20, 163,
  20, 167,
  20, 168,
  20, 169,
  20, 171,
  20, 174,
  20, 176,
  20, 178,
  20, 179,
  20, 181,
  20, 182,
  20, 183,
  20, 185,
  20, 186,
  20, 187,
  20, 194,
  20, 195,
  20, 197,
  21, 23,
  21, 27,
  21, 28,
  21, 29,
  21, 30,
  21, 31,
  21, 33,
  21, 36,
  21, 37,
  21, 44,
  21, 45,
  21, 48,
  21, 52,
  21, 53,
  21, 56,
  21, 57,
  21, 60,
  21, 63,
  21, 64,
  21, 68,
  21, 70,
  21, 74,
  21, 75,
  21, 76,
  21, 77,
  21, 78,
  21, 79,
  21, 80,
  21, 81,
  21, 82,
  21, 83,
  21, 85,
  21, 92,
  21, 94,
  21, 95,
  21, 96,
  21, 102,
  21, 103,
  21, 104,
  21, 106,
  21, 108,
  21, 111,
  21, 112,
  21, 113,
  21, 116,
  21, 117,
  21, 121,
  21, 123,
  21, 124,
  21, 125,
  21, 127,
  21, 137,
  21, 140,
  21, 141,
  21, 142,
  21, 143,
  21, 144,
  21, 145,
  21, 146,
  21, 148,
  21, 150,
  21, 153,
  21, 154,
  21, 157,
  21, 160,
  21, 162,
  21, 163,
  21, 165,
  21, 166,
  21, 167,
  21, 172,
  21, 174,
  21, 178,
  21, 182,
  21, 184,
  21, 186,
  21, 189,
  21, 191,
  21, 193,
  21, 197,
  21, 198,
  22, 24,
  22, 26,
  22, 27,
  22, 30,
  22, 31,
  22, 32,
  22, 33,
  22, 35,
  22, 36,
  22, 39,
  22, 40,
  22, 41,
  22, 42,
  22, 45,
  22, 47,
  22, 48,
  22, 50,
  22, 53,
  22, 55,
  22, 59,
  22, 60,
  22, 63,
  22, 66,
  22, 67,
  22, 71,
  22, 72,
  22, 73,
  22, 74,
  22, 77,
  22, 79,
  22, 80,
  22, 83,
  22, 87,
  22, 88,
  22, 89,
  22, 92,
  22, 95,
  22, 96,
  22, 99,
  22, 102,
  22, 108,
  22, 111,
  22, 116,
  22, 118,
  22, 119,
  22, 125,
  22, 126,
  22, 131,
  22, 132,
  22, 133,
  22, 136,
  22, 137,
  22, 138,
  22, 139,
  22, 144,
  22, 145,
  22, 146,
  22, 147,
  22, 148,
  22, 149,
  22, 150,
  22, 151,
  22, 153,
  22, 154,
  22, 157,
  22, 158,
  22, 159,
  22, 161,
  22, 164,
  22, 165,
  22, 166,
  22, 167,
  22, 169,
  22, 172,
  22, 175,
  22, 177,
  22, 178,
  22, 185,
  22, 188,
  22, 190,
  22, 192,
  22, 193,
  22, 194,
  22, 195,
  22, 196,
  22, 197,
  22, 198,
  23, 24,
  23, 25,
  23, 28,
  23, 30,
  23, 36,
  23, 37,
  23, 39,
  23, 40,
  23, 45,
  23, 48,
  23, 50,
  23, 51,
  23, 53,
  23, 55,
  23, 60,
  23, 63,
  23, 64,
  23, 66,
  23, 67,
  23, 68,
  23, 70,
  23, 77,
  23, 78,
  23, 79,
  23, 83,
  23, 84,
  23, 85,
  23, 88,
  23, 90,
  23, 97,
  23, 98,
  23, 99,
  23, 102,
  23, 104,
  23, 107,
  23, 108,
  23, 110,
  23, 111,
  23, 112,
  23, 114,
  23, 115,
  23, 117,
  23, 120,
  23, 123,
  23, 128,
  23, 129,
  23, 132,
  23, 134,
  23, 137,
  23, 139,
  23, 144,
  23, 148,
  23, 150,
  23, 151,
  23, 154,
  23, 155,
  23, 156,
  23, 157,
  23, 162,
  23, 163,
  23, 165,
  23, 166,
  23, 167,
  23, 168,
  23, 171,
  23, 172,
  23, 175,
  23, 178,
  23, 179,
  23, 180,
  23, 185,
  23, 186,
  23, 187,
  23, 188,
  23, 193,
  23, 195,
  23, 196,
  23, 197,
  23, 199,
  23, 200,
  24, 29,
  24, 30,
  24, 31,
  24, 33,
  24, 37,
  24, 38,
  24, 39,
  24, 42,
  24, 43,
  24, 44,
  24, 45,
  24, 46,
  24, 47,
  24, 51,
  24, 53,
  24, 54,
  24, 55,
  24, 57,
  24, 59,
  24, 60,
  24, 61,
  24, 62,
  24, 63,
  24, 70,
  24, 73,
  24, 74,
  24, 75,
  24, 76,
  24, 78,
  24, 79,
  24, 80,
  24, 82,
  24, 84,
  24, 87,
  24, 89,
  24, 90,
  24, 91,
  24, 95,
  24, 97,
  24, 104,
  24, 106,
  24, 109,
  24, 110,
  24, 112,
  24, 113,
  24, 115,
  24, 117,
  24, 122,
  24, 123,
  24, 125,
  24, 126,
  24, 127,
  24, 128,
  24, 131,
  24, 132,
  24, 135,
  24, 136,
  24, 137,
  24, 138,
  24, 140,
  24, 141,
  24, 143,
  24, 144,
  24, 145,
  24, 146,
  24, 148,
  24, 149,
  24, 151,
  24, 154,
  24, 156,
  24, 159,
  24, 160,
  24, 161,
  24, 162,
  24, 164,
  24, 165,
  24, 166,
  24, 168,
  24, 170,
  24, 173,
  24, 174,
  24, 178,
  24, 180,
  24, 183,
  24, 186,
  24, 189,
  24, 190,
  24, 192,
  24, 196,
  24, 197,
  24, 198,
  24, 200,
  25, 28,
  25, 34,
  25, 35,
  25, 36,
  25, 38,
  25, 39,
  25, 40,
  25, 42,
  25, 43,
  25, 44,
  25, 46,
  25, 50,
  25, 51,
  25, 52,
  25, 53,
  25, 55,
  25, 61,
  25, 66,
  25, 67,
  25, 68,
  25, 70,
  25, 71,
  25, 74,
  25, 75,
  25, 77,
  25, 84,
  25, 85,
  25, 88,
  25, 89,
  25, 91,
  25, 93,
  25, 95,
  25, 96,
  25, 97,
  25, 99,
  25, 101,
  25, 102,
  25, 105,
  25, 107,
  25, 109,
  25, 110,
  25, 112,
  25, 113,
  25, 118,
  25, 119,
  25, 120,
  25, 121,
  25, 122,
  25, 124,
  25, 125,
  25, 127,
  25, 129,
  25, 130,
  25, 131,
  25, 134,
  25, 135,
  25, 136,
  25, 139,
  25, 140,
  25, 141,
  25, 142,
  25, 143,
  25, 144,
  25, 145,
  25, 147,
  25, 150,
  25, 152,
  25, 153,
  25, 154,
  25, 155,
  25, 157,
  25, 158,
  25, 159,
  25, 160,
  25, 161,
  25, 162,
  25, 164,
  25, 165,
  25, 170,
  25, 173,
  25, 174,
  25, 175,
  25, 181,
  25, 184,
  25, 185,
  25, 189,
  25, 190,
  25, 191,
  25, 193,
  25, 195,
  25, 198,
  26, 27,
  26, 28,
  26, 29,
  26, 31,
  26, 33,
  26, 34,
  26, 35,
  26, 36,
  26, 39,
  26, 43,
  26, 48,
  26, 49,
  26, 50,
  26, 51,
  26, 52,
  26, 53,
  26, 54,
  26, 56,
  26, 57,
  26, 59,
  26, 61,
  26, 62,
  26, 64,
  26, 67,
  26, 68,
  26, 69,
  26, 71,
  26, 72,
  26, 74,
  26, 75,
  26, 77,
  26, 78,
  26, 79,
  26, 81,
  26, 82,
  26, 84,
  26, 85,
  26, 88,
  26, 91,
  26, 94,
  26, 95,
  26, 98,
  26, 100,
  26, 102,
  26, 103,
  26, 105,
  26, 106,
  26, 108,
  26, 111,
  26, 112,
  26, 113,
  26, 114,
  26, 118,
  26, 120,
  26, 121,
  26, 122,
  26, 125,
  26, 127,
  26, 131,
  26, 132,
  26, 133,
  26, 134,
  26, 135,
  26, 136,
  26, 137,
  26, 138,
  26, 141,
  26, 143,
  26, 145,
  26, 146,
  26, 148,
  26, 150,
  26, 151,
  26, 154,
  26, 155,
  26, 156,
  26, 159,
  26, 161,
  26, 162,
  26, 163,
  26, 165,
  26, 168,
  26, 169,
  26, 172,
  26, 173,
  26, 174,
  26, 175,
  26, 176,
  26, 177,
  26, 178,
  26, 183,
  26, 185,
  26, 187,
  26, 189,
  26, 190,
  26, 192,
  26, 194,
  26, 197,
  26, 198,
  26, 199,
  26, 200,
  27, 29,
  27, 30,
  27, 33,
  27, 34,
  27, 37,
  27, 40,
  27, 41,
  27, 47,
  27, 51,
  27, 52,
  27, 54,
  27, 56,
  27, 58,
  27, 59,
  27, 61,
  27, 63,
  27, 65,
  27, 66,
  27, 68,
  27, 69,
  27, 70,
  27, 71,
  27, 72,
  27, 74,
  27, 76,
  27, 77,
  27, 79,
  27, 81,
  27, 84,
  27, 85,
  27, 86,
  27, 87,
  27, 89,
  27, 90,
  27, 91,
  27, 93,
  27, 95,
  27, 96,
  27, 99,
  27, 103,
  27, 104,
  27, 105,
  27, 108,
  27, 110,
  27, 111,
  27, 113,
  27, 114,
  27, 115,
  27, 116,
  27, 117,
  27, 121,
  27, 122,
  27, 123,
  27, 125,
  27, 126,
  27, 127,
  27, 128,
  27, 130,
  27, 134,
  27, 137,
  27, 140,
  27, 142,
  27, 143,
  27, 148,
  27, 150,
  27, 152,
  27, 155,
  27, 158,
  27, 159,
  27, 161,
  27, 163,
  27, 164,
  27, 169,
  27, 170,
  27, 172,
  27, 174,
  27, 179,
  27, 181,
  27, 183,
  27, 184,
  27, 187,
  27, 188,
  27, 189,
  27, 191,
  27, 192,
  27, 193,
  27, 197,
  28, 30,
  28, 31,
  28, 38,
  28, 40,
  28, 44,
  28, 45,
  28, 48,
  28, 53,
  28, 60,
  28, 61,
  28, 62,
  28, 63,
  28, 70,
  28, 71,
  28, 73,
  28, 74,
  28, 75,
  28, 76,
  28, 77,
  28, 79,
  28, 80,
  28, 81,
  28, 85,
  28, 86,
  28, 87,
  28, 91,
  28, 95,
  28, 97,
  28, 98,
  28, 99,
  28, 100,
  28, 101,
  28, 103,
  28, 106,
  28, 109,
  28, 111,
  28, 112,
  28, 114,
  28, 115,
  28, 117,
  28, 128,
  28, 130,
  28, 132,
  28, 133,
  28, 136,
  28, 138,
  28, 140,
  28, 145,
  28, 146,
  28, 147,
  28, 148,
  28, 149,
  28, 153,
  28, 155,
  28, 157,
  28, 160,
  28, 163,
  28, 165,
  28, 167,
  28, 170,
  28, 171,
  28, 175,
  28, 178,
  28, 180,
  28, 182,
  28, 190,
  28, 193,
  28, 194,
  28, 197,
  28, 199,
  28, 200,
  29, 30,
  29, 31,
  29, 32,
  29, 33,
  29, 37,
  29, 38,
  29, 39,
  29, 40,
  29, 41,
  29, 44,
  29, 47,
  29, 50,
  29, 51,
  29, 53,
  29, 55,
  29, 56,
  29, 57,
  29, 61,
  29, 64,
  29, 66,
  29, 68,
  29, 70,
  29, 72,
  29, 73,
  29, 76,
  29, 77,
  29, 78,
  29, 84,
  29, 85,
  29, 86,
  29, 88,
  29, 89,
  29, 92,
  29, 93,
  29, 94,
  29, 95,
  29, 97,
  29, 101,
  29, 105,
  29, 107,
  29, 108,
  29, 113,
  29, 114,
  29, 115,
  29, 116,
  29, 118,
  29, 120,
  29, 121,
  29, 123,
  29, 124,
  29, 127,
  29, 128,
  29, 137,
  29, 138,
  29, 139,
  29, 144,
  29, 145,
  29, 149,
  29, 150,
  29, 152,
  29, 154,
  29, 155,
  29, 158,
  29, 159,
  29, 164,
  29, 165,
  29, 170,
  29, 171,
  29, 172,
  29, 174,
  29, 176,
  29, 177,
  29, 178,
  29, 179,
  29, 180,
  29, 181,
  29, 182,
  29, 183,
  29, 186,
  29, 189,
  29, 191,
  29, 193,
  29, 196,
  29, 197,
  29, 200,
  30, 31,
  30, 32,
  30, 33,
  30, 35,
  30, 37,
  30, 38,
  30, 40,
  30, 50,
  30, 51,
  30, 53,
  30, 54,
  30, 59,
  30, 62,
  30, 63,
  30, 64,
  30, 68,
  30, 69,
  30, 74,
  30, 76,
  30, 78,
  30, 79,
  30, 81,
  30, 84,
  30, 85,
  30, 87,
  30, 88,
  30, 90,
  30, 91,
  30, 93,
  30, 95,
  30, 96,
  30, 97,
  30, 99,
  30, 102,
  30, 104,
  30, 105,
  30, 107,
  30, 108,
  30, 110,
  30, 112,
  30, 113,
  30, 114,
  30, 115,
  30, 117,
  30, 119,
  30, 120,
  30, 124,
  30, 125,
  30, 127,
  30, 132,
  30, 133,
  30, 136,
  30, 137,
  30, 138,
  30, 139,
  30, 140,
  30, 142,
  30, 148,
  30, 150,
  30, 151,
  30, 152,
  30, 154,
  30, 155,
  30, 157,
  30, 158,
  30, 162,
  30, 163,
  30, 164,
  30, 170,
  30, 172,
  30, 173,
  30, 174,
  30, 176,
  30, 177,
  30, 179,
  30, 182,
  30, 184,
  30, 185,
  30, 186,
  30, 188,
  30, 190,
  30, 194,
  30, 195,
  30, 197,
  30, 198,
  30, 199,
  30, 200,
  31, 32,
  31, 34,
  31, 37,
  31, 38,
  31, 40,
  31, 42,
  31, 44,
  31, 47,
  31, 50,
  31, 52,
  31, 53,
  31, 58,
  31, 59,
  31, 61,
  31, 62,
  31, 66,
  31, 68,
  31, 71,
  31, 72,
  31, 73,
  31, 74,
  31, 75,
  31, 76,
  31, 77,
  31, 78,
  31, 79,
  31, 82,
  31, 84,
  31, 86,
  31, 88,
  31, 92,
  31, 95,
  31, 97,
  31, 99,
  31, 100,
  31, 102,
  31, 103,
  31, 106,
  31, 107,
  31, 109,
  31, 110,
  31, 112,
  31, 113,
  31, 114,
  31, 115,
  31, 116,
  31, 117,
  31, 120,
  31, 124,
  31, 126,
  31, 127,
  31, 129,
  31, 130,
  31, 132,
  31, 135,
  31, 139,
  31, 142,
  31, 143,
  31, 144,
  31, 145,
  31, 148,
  31, 149,
  31, 153,
  31, 154,
  31, 156,
  31, 157,
  31, 158,
  31, 159,
  31, 161,
  31, 163,
  31, 165,
  31, 166,
  31, 167,
  31, 168,
  31, 172,
  31, 174,
  31, 180,
  31, 182,
  31, 184,
  31, 186,
  31, 188,
  31, 190,
  31, 191,
  31, 193,
  31, 195,
  31, 196,
  31, 198,
  31, 199,
  31, 200,
  32, 33,
  32, 34,
  32, 37,
  32, 39,
  32, 40,
  32, 41,
  32, 42,
  32, 44,
  32, 45,
  32, 46,
  32, 47,
  32, 49,
  32, 51,
  32, 53,
  32, 54,
  32, 56,
  32, 57,
  32, 58,
  32, 59,
  32, 60,
  32, 61,
  32, 62,
  32, 66,
  32, 67,
  32, 68,
  32, 69,
  32, 71,
  32, 73,
  32, 74,
  32, 75,
  32, 77,
  32, 78,
  32, 79,
  32, 82,
  32, 83,
  32, 86,
  32, 87,
  32, 91,
  32, 94,
  32, 97,
  32, 98,
  32, 99,
  32, 101,
  32, 102,
  32, 104,
  32, 105,
  32, 106,
  32, 109,
  32, 112,
  32, 113,
  32, 117,
  32, 119,
  32, 120,
  32, 121,
  32, 124,
  32, 125,
  32, 126,
  32, 127,
  32, 128,
  32, 129,
  32, 130,
  32, 131,
  32, 134,
  32, 135,
  32, 137,
  32, 139,
  32, 141,
  32, 143,
  32, 144,
  32, 146,
  32, 151,
  32, 152,
  32, 153,
  32, 154,
  32, 157,
  32, 160,
  32, 162,
  32, 163,
  32, 164,
  32, 168,
  32, 173,
  32, 175,
  32, 176,
  32, 177,
  32, 178,
  32, 179,
  32, 184,
  32, 185,
  32, 187,
  32, 189,
  32, 195,
  32, 198,
  32, 199,
  33, 36,
  33, 37,
  33, 40,
  33, 43,
  33, 45,
  33, 48,
  33, 50,
  33, 51,
  33, 52,
  33, 56,
  33, 59,
  33, 60,
  33, 61,
  33, 64,
  33, 65,
  33, 67,
  33, 68,
  33, 72,
  33, 74,
  33, 76,
  33, 77,
  33, 79,
  33, 80,
  33, 81,
  33, 83,
  33, 84,
  33, 86,
  33, 87,
  33, 88,
  33, 89,
  33, 94,
  33, 95,
  33, 96,
  33, 98,
  33, 99,
  33, 100,
  33, 101,
  33, 105,
  33, 107,
  33, 108,
  33, 110,
  33, 112,
  33, 113,
  33, 114,
  33, 115,
  33, 116,
  33, 120,
  33, 121,
  33, 122,
  33, 123,
  33, 125,
  33, 126,
  33, 127,
  33, 128,
  33, 129,
  33, 130,
  33, 132,
  33, 141,
  33, 143,
  33, 144,
  33, 145,
  33, 146,
  33, 147,
  33, 148,
  33, 149,
  33, 150,
  33, 151,
  33, 153,
  33, 162,
  33, 163,
  33, 165,
  33, 166,
  33, 167,
  33, 168,
  33, 170,
  33, 173,
  33, 176,
  33, 177,
  33, 178,
  33, 180,
  33, 181,
  33, 182,
  33, 184,
  33, 185,
  33, 187,
  33, 188,
  33, 189,
  33, 191,
  33, 192,
  33, 194,
  33, 196,
  33, 197,
  33, 199,
  34, 36,
  34, 40,
  34, 42,
  34, 44,
  34, 46,
  34, 48,
  34, 51,
  34, 53,
  34, 55,
  34, 59,
  34, 60,
  34, 62,
  34, 63,
  34, 66,
  34, 67,
  34, 73,
  34, 74,
  34, 75,
  34, 76,
  34, 77,
  34, 81,
  34, 83,
  34, 85,
  34, 86,
  34, 87,
  34, 88,
  34, 89,
  34, 90,
  34, 94,
  34, 98,
  34, 99,
  34, 100,
  34, 103,
  34, 104,
  34, 105,
  34, 108,
  34, 112,
  34, 113,
  34, 115,
  34, 116,
  34, 119,
  34, 121,
  34, 122,
  34, 127,
  34, 129,
  34, 131,
  34, 132,
  34, 133,
  34, 134,
  34, 136,
  34, 140,
  34, 141,
  34, 143,
  34, 144,
  34, 145,
  34, 146,
  34, 147,
  34, 152,
  34, 154,
  34, 155,
  34, 156,
  34, 157,
  34, 158,
  34, 160,
  34, 162,
  34, 163,
  34, 164,
  34, 165,
  34, 166,
  34, 168,
  34, 170,
  34, 174,
  34, 176,
  34, 178,
  34, 179,
  34, 183,
  34, 188,
  34, 191,
  34, 193,
  34, 195,
  34, 196,
  34, 197,
  34, 200,
  35, 36,
  35, 37,
  35, 38,
  35, 44,
  35, 49,
  35, 53,
  35, 54,
  35, 55,
  35, 57,
  35, 58,
  35, 60,
  35, 63,
  35, 64,
  35, 65,
  35, 69,
  35, 71,
  35, 72,
  35, 73,
  35, 77,
  35, 79,
  35, 80,
  35, 81,
  35, 82,
  35, 84,
  35, 88,
  35, 90,
  35, 92,
  35, 94,
  35, 97,
  35, 98,
  35, 100,
  35, 102,
  35, 103,
  35, 104,
  35, 105,
  35, 106,
  35, 107,
  35, 108,
  35, 110,
  35, 111,
  35, 112,
  35, 113,
  35, 116,
  35, 117,
  35, 122,
  35, 131,
  35, 134,
  35, 135,
  35, 136,
  35, 137,
  35, 140,
  35, 143,
  35, 144,
  35, 146,
  35, 148,
  35, 151,
  35, 152,
  35, 153,
  35, 156,
  35, 157,
  35, 159,
  35, 161,
  35, 165,
  35, 166,
  35, 167,
  35, 168,
  35, 169,
  35, 170,
  35, 171,
  35, 172,
  35, 174,
  35, 175,
  35, 177,
  35, 178,
  35, 179,
  35, 180,
  35, 181,
  35, 182,
  35, 183,
  35, 187,
  35, 189,
  35, 190,
  35, 194,
  35, 197,
  35, 198,
  35, 200,
  36, 37,
  36, 38,
  36, 40,
  36, 41,
  36, 42,
  36, 43,
  36, 45,
  36, 47,
  36, 48,
  36, 51,
  36, 52,
  36, 55,
  36, 56,
  36, 58,
  36, 60,
  36, 63,
  36, 65,
  36, 67,
  36, 72,
  36, 75,
  36, 81,
  36, 82,
  36, 83,
  36, 88,
  36, 90,
  36, 92,
  36, 96,
  36, 97,
  36, 100,
  36, 102,
  36, 103,
  36, 104,
  36, 105,
  36, 106,
  36, 110,
  36, 111,
  36, 112,
  36, 113,
  36, 114,
  36, 116,
  36, 119,
  36, 120,
  36, 121,
  36, 124,
  36, 129,
  36, 130,
  36, 131,
  36, 133,
  36, 134,
  36, 137,
  36, 139,
  36, 141,
  36, 142,
  36, 145,
  36, 150,
  36, 151,
  36, 152,
  36, 155,
  36, 156,
  36, 159,
  36, 165,
  36, 166,
  36, 168,
  36, 169,
  36, 171,
  36, 173,
  36, 174,
  36, 178,
  36, 183,
  36, 192,
  36, 193,
  36, 195,
  36, 198,
  36, 200,
  37, 38,
  37, 41,
  37, 43,
  37, 45,
  37, 47,
  37, 48,
  37, 53,
  37, 55,
  37, 56,
  37, 58,
  37, 61,
  37, 64,
  37, 66,
  37, 69,
  37, 78,
  37, 79,
  37, 82,
  37, 83,
  37, 84,
  37, 87,
  37, 88,
  37, 89,
  37, 94,
  37, 96,
  37, 98,
  37, 101,
  37, 102,
  37, 103,
  37, 105,
  37, 107,
  37, 108,
  37, 110,
  37, 111,
  37, 112,
  37, 113,
  37, 114,
  37, 115,
  37, 116,
  37, 117,
  37, 118,
  37, 123,
  37, 132,
  37, 133,
  37, 134,
  37, 135,
  37, 139,
  37, 141,
  37, 142,
  37, 144,
  37, 147,
  37, 149,
  37, 150,
  37, 151,
  37, 152,
  37, 156,
  37, 157,
  37, 158,
  37, 159,
  37, 160,
  37, 168,
  37, 169,
  37, 171,
  37, 172,
  37, 173,
  37, 177,
  37, 180,
  37, 181,
  37, 182,
  37, 184,
  37, 185,
  37, 186,
  37, 187,
  37, 190,
  37, 194,
  37, 195,
  37, 196,
  37, 199,
  37, 200,
  38, 39,
  38, 40,
  38, 41,
  38, 43,
  38, 46,
  38, 48,
  38, 53,
  38, 54,
  38, 56,
  38, 58,
  38, 59,
  38, 62,
  38, 63,
  38, 67,
  38, 69,
  38, 71,
  38, 72,
  38, 74,
  38, 78,
  38, 79,
  38, 81,
  38, 86,
  38, 88,
  38, 89,
  38, 91,
  38, 92,
  38, 93,
  38, 95,
  38, 96,
  38, 97,
  38, 98,
  38, 99,
  38, 102,
  38, 103,
  38, 106,
  38, 107,
  38, 108,
  38, 109,
  38, 111,
  38, 114,
  38, 116,
  38, 117,
  38, 119,
  38, 121,
  38, 122,
  38, 124,
  38, 126,
  38, 130,
  38, 131,
  38, 132,
  38, 133,
  38, 134,
  38, 136,
  38, 137,
  38, 139,
  38, 141,
  38, 142,
  38, 143,
  38, 147,
  38, 149,
  38, 150,
  38, 152,
  38, 154,
  38, 155,
  38, 156,
  38, 157,
  38, 158,
  38, 160,
  38, 164,
  38, 167,
  38, 168,
  38, 170,
  38, 171,
  38, 172,
  38, 174,
  38, 175,
  38, 176,
  38, 177,
  38, 178,
  38, 179,
  38, 180,
  38, 181,
  38, 182,
  38, 189,
  38, 190,
  38, 194,
  38, 195,
  38, 196,
  38, 198,
  38, 199,
  38, 200,
  39, 40,
  39, 41,
  39, 43,
  39, 44,
  39, 45,
  39, 47,
  39, 49,
  39, 50,
  39, 51,
  39, 54,
  39, 55,
  39, 56,
  39, 57,
  39, 59,
  39, 61,
  39, 63,
  39, 64,
  39, 65,
  39, 66,
  39, 69,
  39, 71,
  39, 79,
  39, 80,
  39, 83,
  39, 84,
  39, 85,
  39, 87,
  39, 90,
  39, 91,
  39, 92,
  39, 93,
  39, 94,
  39, 96,
  39, 97,
  39, 98,
  39, 102,
  39, 103,
  39, 107,
  39, 110,
  39, 112,
  39, 113,
  39, 118,
  39, 119,
  39, 120,
  39, 121,
  39, 123,
  39, 130,
  39, 131,
  39, 132,
  39, 136,
  39, 137,
  39, 142,
  39, 143,
  39, 144,
  39, 145,
  39, 146,
  39, 147,
  39, 149,
  39, 152,
  39, 154,
  39, 159,
  39, 160,
  39, 161,
  39, 162,
  39, 165,
  39, 166,
  39, 168,
  39, 169,
  39, 171,
  39, 173,
  39, 174,
  39, 175,
  39, 176,
  39, 179,
  39, 181,
  39, 182,
  39, 184,
  39, 186,
  39, 187,
  39, 189,
  39, 191,
  39, 193,
  39, 194,
  39, 196,
  39, 198,
  39, 199,
  40, 41,
  40, 43,
  40, 45,
  40, 47,
  40, 49,
  40, 53,
  40, 54,
  40, 56,
  40, 57,
  40, 59,
  40, 60,
  40, 63,
  40, 66,
  40, 68,
  40, 70,
  40, 71,
  40, 73,
  40, 74,
  40, 75,
  40, 77,
  40, 78,
  40, 79,
  40, 80,
  40, 84,
  40, 85,
  40, 86,
  40, 89,
  40, 90,
  40, 91,
  40, 93,
  40, 94,
  40, 96,
  40, 97,
  40, 100,
  40, 104,
  40, 105,
  40, 107,
  40, 108,
  40, 109,
  40, 112,
  40, 114,
  40, 116,
  40, 117,
  40, 118,
  40, 120,
  40, 123,
  40, 124,
  40, 126,
  40, 130,
  40, 131,
  40, 132,
  40, 134,
  40, 136,
  40, 138,
  40, 140,
  40, 142,
  40, 143,
  40, 144,
  40, 145,
  40, 150,
  40, 156,
  40, 160,
  40, 161,
  40, 163,
  40, 164,
  40, 169,
  40, 170,
  40, 171,
  40, 172,
  40, 174,
  40, 176,
  40, 178,
  40, 180,
  40, 181,
  40, 187,
  40, 190,
  40, 193,
  40, 194,
  40, 200,
  41, 42,
  41, 43,
  41, 46,
  41, 47,
  41, 53,
  41, 54,
  41, 55,
  41, 56,
  41, 57,
  41, 59,
  41, 63,
  41, 64,
  41, 65,
  41, 67,
  41, 68,
  41, 72,
  41, 73,
  41, 75,
  41, 76,
  41, 78,
  41, 79,
  41, 80,
  41, 81,
  41, 82,
  41, 86,
  41, 88,
  41, 91,
  41, 97,
  41, 99,
  41, 100,
  41, 102,
  41, 103,
  41, 105,
  41, 107,
  41, 108,
  41, 111,
  41, 112,
  41, 113,
  41, 115,
  41, 117,
  41, 119,
  41, 124,
  41, 125,
  41, 128,
  41, 129,
  41, 130,
  41, 134,
  41, 135,
  41, 136,
  41, 137,
  41, 138,
  41, 140,
  41, 142,
  41, 145,
  41, 147,
  41, 148,
  41, 150,
  41, 157,
  41, 159,
  41, 160,
  41, 161,
  41, 162,
  41, 163,
  41, 164,
  41, 165,
  41, 166,
  41, 167,
  41, 170,
  41, 173,
  41, 174,
  41, 175,
  41, 177,
  41, 183,
  41, 184,
  41, 188,
  41, 191,
  41, 197,
  41, 199,
  42, 45,
  42, 52,
  42, 56,
  42, 57,
  42, 59,
  42, 61,
  42, 67,
  42, 70,
  42, 71,
  42, 76,
  42, 79,
  42, 80,
  42, 81,
  42, 85,
  42, 86,
  42, 87,
  42, 90,
  42, 92,
  42, 94,
  42, 96,
  42, 98,
  42, 100,
  42, 101,
  42, 102,
  42, 106,
  42, 109,
  42, 110,
  42, 111,
  42, 112,
  42, 114,
  42, 115,
  42, 117,
  42, 119,
  42, 122,
  42, 125,
  42, 126,
  42, 132,
  42, 135,
  42, 137,
  42, 138,
  42, 140,
  42, 145,
  42, 146,
  42, 148,
  42, 151,
  42, 153,
  42, 154,
  42, 158,
  42, 159,
  42, 162,
  42, 163,
  42, 164,
  42, 166,
  42, 171,
  42, 172,
  42, 175,
  42, 176,
  42, 178,
  42, 182,
  42, 183,
  42, 184,
  42, 185,
  42, 187,
  42, 188,
  42, 191,
  42, 193,
  42, 194,
  42, 195,
  42, 198,
  43, 44,
  43, 45,
  43, 46,
  43, 48,
  43, 49,
  43, 50,
  43, 51,
  43, 53,
  43, 55,
  43, 56,
  43, 57,
  43, 58,
  43, 59,
  43, 63,
  43, 64,
  43, 66,
  43, 67,
  43, 68,
  43, 69,
  43, 70,
  43, 71,
  43, 72,
  43, 73,
  43, 74,
  43, 76,
  43, 80,
  43, 82,
  43, 83,
  43, 89,
  43, 92,
  43, 93,
  43, 94,
  43, 97,
  43, 98,
  43, 100,
  43, 101,
  43, 102,
  43, 105,
  43, 109,
  43, 112,
  43, 113,
  43, 114,
  43, 119,
  43, 122,
  43, 123,
  43, 125,
  43, 132,
  43, 134,
  43, 136,
  43, 137,
  43, 138,
  43, 139,
  43, 142,
  43, 144,
  43, 146,
  43, 150,
  43, 151,
  43, 152,
  43, 153,
  43, 154,
  43, 155,
  43, 156,
  43, 157,
  43, 160,
  43, 162,
  43, 164,
  43, 167,
  43, 169,
  43, 170,
  43, 172,
  43, 174,
  43, 176,
  43, 178,
  43, 179,
  43, 181,
  43, 182,
  43, 183,
  43, 185,
  43, 187,
  43, 188,
  43, 190,
  43, 192,
  43, 193,
  43, 194,
  43, 195,
  43, 196,
  44, 46,
  44, 50,
  44, 52,
  44, 55,
  44, 57,
  44, 58,
  44, 59,
  44, 61,
  44, 64,
  44, 66,
  44, 67,
  44, 68,
  44, 69,
  44, 72,
  44, 74,
  44, 75,
  44, 76,
  44, 77,
  44, 78,
  44, 81,
  44, 87,
  44, 88,
  44, 89,
  44, 92,
  44, 93,
  44, 96,
  44, 97,
  44, 103,
  44, 106,
  44, 107,
  44, 111,
  44, 113,
  44, 118,
  44, 122,
  44, 123,
  44, 124,
  44, 125,
  44, 133,
  44, 134,
  44, 137,
  44, 141,
  44, 143,
  44, 146,
  44, 147,
  44, 148,
  44, 149,
  44, 150,
  44, 151,
  44, 155,
  44, 158,
  44, 159,
  44, 161,
  44, 164,
  44, 165,
  44, 167,
  44, 169,
  44, 173,
  44, 178,
  44, 180,
  44, 185,
  44, 188,
  44, 192,
  44, 193,
  44, 196,
  44, 197,
  44, 198,
  44, 200,
  45, 46,
  45, 48,
  45, 49,
  45, 50,
  45, 53,
  45, 55,
  45, 58,
  45, 61,
  45, 64,
  45, 65,
  45, 67,
  45, 68,
  45, 74,
  45, 78,
  45, 79,
  45, 82,
  45, 83,
  45, 89,
  45, 90,
  45, 94,
  45, 97,
  45, 99,
  45, 100,
  45, 101,
  45, 103,
  45, 104,
  45, 110,
  45, 114,
  45, 115,
  45, 116,
  45, 118,
  45, 122,
  45, 124,
  45, 126,
  45, 130,
  45, 132,
  45, 134,
  45, 135,
  45, 136,
  45, 138,
  45, 140,
  45, 141,
  45, 142,
  45, 145,
  45, 149,
  45, 150,
  45, 151,
  45, 152,
  45, 154,
  45, 158,
  45, 160,
  45, 162,
  45, 164,
  45, 166,
  45, 168,
  45, 170,
  45, 171,
  45, 175,
  45, 177,
  45, 178,
  45, 179,
  45, 180,
  45, 182,
  45, 185,
  45, 186,
  45, 189,
  45, 191,
  45, 192,
  45, 194,
  45, 196,
  45, 197,
  45, 200,
  46, 47,
  46, 51,
  46, 56,
  46, 57,
  46, 58,
  46, 61,
  46, 62,
  46, 63,
  46, 64,
  46, 65,
  46, 66,
  46, 67,
  46, 68,
  46, 70,
  46, 72,
  46, 73,
  46, 74,
  46, 75,
  46, 78,
  46, 80,
  46, 81,
  46, 85,
  46, 86,
  46, 88,
  46, 89,
  46, 90,
  46, 92,
  46, 96,
  46, 98,
  46, 99,
  46, 100,
  46, 101,
  46, 110,
  46, 112,
  46, 116,
  46, 119,
  46, 120,
  46, 122,
  46, 123,
  46, 126,
  46, 128,
  46, 129,
  46, 130,
  46, 132,
  46, 134,
  46, 136,
  46, 137,
  46, 147,
  46, 151,
  46, 152,
  46, 153,
  46, 154,
  46, 155,
  46, 157,
  46, 158,
  46, 160,
  46, 161,
  46, 162,
  46, 163,
  46, 164,
  46, 168,
  46, 171,
  46, 173,
  46, 174,
  46, 176,
  46, 177,
  46, 180,
  46, 181,
  46, 182,
  46, 183,
  46, 184,
  46, 185,
  46, 186,
  46, 190,
  46, 191,
  46, 192,
  47, 48,
  47, 50,
  47, 52,
  47, 54,
  47, 56,
  47, 57,
  47, 59,
  47, 60,
  47, 61,
  47, 67,
  47, 70,
  47, 71,
  47, 74,
  47, 76,
  47, 78,
  47, 79,
  47, 80,
  47, 81,
  47, 82,
  47, 83,
  47, 87,
  47, 88,
  47, 90,
  47, 93,
  47, 94,
  47, 96,
  47, 97,
  47, 98,
  47, 102,
  47, 103,
  47, 104,
  47, 108,
  47, 109,
  47, 111,
  47, 112,
  47, 122,
  47, 123,
  47, 126,
  47, 128,
  47, 129,
  47, 130,
  47, 131,
  47, 132,
  47, 136,
  47, 139,
  47, 140,
  47, 141,
  47, 142,
  47, 147,
  47, 148,
  47, 151,
  47, 152,
  47, 153,
  47, 155,
  47, 157,
  47, 158,
  47, 160,
  47, 161,
  47, 162,
  47, 164,
  47, 165,
  47, 166,
  47, 170,
  47, 171,
  47, 172,
  47, 174,
  47, 176,
  47, 177,
  47, 178,
  47, 179,
  47, 185,
  47, 188,
  47, 189,
  47, 193,
  47, 197,
  47, 199,
  47, 200,
  48, 50,
  48, 53,
  48, 56,
  48, 57,
  48, 60,
  48, 62,
  48, 63,
  48, 64,
  48, 65,
  48, 66,
  48, 67,
  48, 69,
  48, 76,
  48, 81,
  48, 82,
  48, 83,
  48, 88,
  48, 90,
  48, 92,
  48, 93,
  48, 94,
  48, 95,
  48, 97,
  48, 101,
  48, 102,
  48, 104,
  48, 107,
  48, 112,
  48, 113,
  48, 117,
  48, 120,
  48, 122,
  48, 125,
  48, 127,
  48, 129,
  48, 130,
  48, 131,
  48, 137,
  48, 139,
  48, 140,
  48, 146,
  48, 147,
  48, 148,
  48, 149,
  48, 150,
  48, 151,
  48, 153,
  48, 157,
  48, 159,
  48, 167,
  48, 168,
  48, 169,
  48, 172,
  48, 173,
  48, 175,
  48, 176,
  48, 181,
  48, 183,
  48, 185,
  48, 194,
  48, 196,
  48, 198,
  48, 199,
  48, 200,
  49, 52,
  49, 53,
  49, 54,
  49, 56,
  49, 59,
  49, 61,
  49, 62,
  49, 63,
  49, 65,
  49, 66,
  49, 67,
  49, 70,
  49, 71,
  49, 74,
  49, 75,
  49, 76,
  49, 78,
  49, 83,
  49, 84,
  49, 87,
  49, 88,
  49, 89,
  49, 91,
  49, 92,
  49, 93,
  49, 95,
  49, 97,
  49, 99,
  49, 100,
  49, 101,
  49, 102,
  49, 103,
  49, 108,
  49, 114,
  49, 116,
  49, 117,
  49, 120,
  49, 128,
  49, 131,
  49, 133,
  49, 134,
  49, 138,
  49, 140,
  49, 142,
  49, 145,
  49, 146,
  49, 147,
  49, 149,
  49, 154,
  49, 156,
  49, 159,
  49, 160,
  49, 162,
  49, 163,
  49, 164,
  49, 165,
  49, 168,
  49, 170,
  49, 174,
  49, 175,
  49, 177,
  49, 178,
  49, 179,
  49, 181,
  49, 183,
  49, 185,
  49, 187,
  49, 188,
  49, 189,
  49, 190,
  49, 191,
  49, 192,
  49, 194,
  49, 195,
  49, 196,
  49, 197,
  49, 199,
  49, 200,
  50, 51,
  50, 53,
  50, 55,
  50, 56,
  50, 58,
  50, 63,
  50, 65,
  50, 66,
  50, 74,
  50, 78,
  50, 82,
  50, 83,
  50, 84,
  50, 85,
  50, 86,
  50, 89,
  50, 92,
  50, 93,
  50, 95,
  50, 96,
  50, 97,
  50, 99,
  50, 101,
  50, 103,
  50, 106,
  50, 107,
  50, 111,
  50, 112,
  50, 113,
  50, 115,
  50, 117,
  50, 118,
  50, 121,
  50, 124,
  50, 125,
  50, 126,
  50, 127,
  50, 128,
  50, 133,
  50, 134,
  50, 138,
  50, 141,
  50, 142,
  50, 146,
  50, 149,
  50, 151,
  50, 156,
  50, 157,
  50, 158,
  50, 159,
  50, 160,
  50, 161,
  50, 162,
  50, 163,
  50, 164,
  50, 165,
  50, 166,
  50, 170,
  50, 173,
  50, 174,
  50, 175,
  50, 176,
  50, 177,
  50, 180,
  50, 181,
  50, 182,
  50, 183,
  50, 185,
  50, 186,
  50, 187,
  50, 188,
  50, 192,
  50, 193,
  50, 195,
  50, 197,
  51, 52,
  51, 53,
  51, 54,
  51, 55,
  51, 56,
  51, 58,
  51, 60,
  51, 62,
  51, 63,
  51, 65,
  51, 68,
  51, 69,
  51, 74,
  51, 75,
  51, 77,
  51, 79,
  51, 80,
  51, 81,
  51, 82,
  51, 83,
  51, 85,
  51, 87,
  51, 88,
  51, 89,
  51, 93,
  51, 94,
  51, 96,
  51, 97,
  51, 98,
  51, 101,
  51, 102,
  51, 103,
  51, 104,
  51, 107,
  51, 108,
  51, 109,
  51, 110,
  51, 112,
  51, 113,
  51, 115,
  51, 117,
  51, 120,
  51, 121,
  51, 122,
  51, 123,
  51, 125,
  51, 127,
  51, 128,
  51, 129,
  51, 131,
  51, 132,
  51, 137,
  51, 138,
  51, 142,
  51, 143,
  51, 144,
  51, 147,
  51, 149,
  51, 150,
  51, 156,
  51, 157,
  51, 166,
  51, 167,
  51, 169,
  51, 173,
  51, 175,
  51, 180,
  51, 183,
  51, 186,
  51, 191,
  51, 192,
  51, 194,
  51, 195,
  51, 197,
  51, 198,
  51, 199,
  52, 53,
  52, 56,
  52, 58,
  52, 59,
  52, 60,
  52, 61,
  52, 63,
  52, 65,
  52, 70,
  52, 73,
  52, 80,
  52, 82,
  52, 84,
  52, 86,
  52, 89,
  52, 90,
  52, 93,
  52, 95,
  52, 96,
  52, 97,
  52, 101,
  52, 106,
  52, 109,
  52, 110,
  52, 113,
  52, 115,
  52, 117,
  52, 122,
  52, 123,
  52, 125,
  52, 126,
  52, 127,
  52, 128,
  52, 130,
  52, 133,
  52, 134,
  52, 135,
  52, 136,
  52, 138,
  52, 141,
  52, 142,
  52, 143,
  52, 144,
  52, 146,
  52, 149,
  52, 150,
  52, 151,
  52, 154,
  52, 158,
  52, 159,
  52, 160,
  52, 165,
  52, 167,
  52, 168,
  52, 169,
  52, 170,
  52, 174,
  52, 175,
  52, 178,
  52, 180,
  52, 181,
  52, 189,
  52, 190,
  52, 193,
  52, 194,
  52, 195,
  52, 196,
  52, 197,
  52, 198,
  53, 54,
  53, 55,
  53, 56,
  53, 57,
  53, 62,
  53, 64,
  53, 65,
  53, 67,
  53, 68,
  53, 69,
  53, 70,
  53, 71,
  53, 72,
  53, 79,
  53, 81,
  53, 82,
  53, 83,
  53, 84,
  53, 85,
  53, 87,
  53, 88,
  53, 92,
  53, 93,
  53, 94,
  53, 95,
  53, 96,
  53, 97,
  53, 98,
  53, 99,
  53, 100,
  53, 101,
  53, 103,
  53, 105,
  53, 108,
  53, 109,
  53, 112,
  53, 113,
  53, 115,
  53, 117,
  53, 118,
  53, 123,
  53, 124,
  53, 126,
  53, 130,
  53, 134,
  53, 137,
  53, 139,
  53, 142,
  53, 145,
  53, 150,
  53, 151,
  53, 153,
  53, 158,
  53, 159,
  53, 162,
  53, 166,
  53, 167,
  53, 170,
  53, 172,
  53, 173,
  53, 178,
  53, 179,
  53, 180,
  53, 188,
  53, 189,
  53, 190,
  53, 192,
  53, 195,
  53, 196,
  53, 197,
  53, 199,
  54, 57,
  54, 59,
  54, 61,
  54, 70,
  54, 71,
  54, 72,
  54, 73,
  54, 74,
  54, 75,
  54, 77,
  54, 78,
  54, 79,
  54, 80,
  54, 84,
  54, 85,
  54, 87,
  54, 91,
  54, 93,
  54, 94,
  54, 95,
  54, 99,
  54, 101,
  54, 102,
  54, 105,
  54, 106,
  54, 109,
  54, 110,
  54, 113,
  54, 114,
  54, 115,
  54, 116,
  54, 119,
  54, 120,
  54, 121,
  54, 122,
  54, 124,
  54, 133,
  54, 137,
  54, 138,
  54, 139,
  54, 140,
  54, 141,
  54, 145,
  54, 146,
  54, 149,
  54, 152,
  54, 153,
  54, 154,
  54, 156,
  54, 157,
  54, 158,
  54, 159,
  54, 160,
  54, 161,
  54, 163,
  54, 164,
  54, 165,
  54, 166,
  54, 168,
  54, 169,
  54, 171,
  54, 173,
  54, 175,
  54, 179,
  54, 180,
  54, 183,
  54, 184,
  54, 185,
  54, 186,
  54, 187,
  54, 188,
  54, 189,
  54, 190,
  54, 194,
  54, 196,
  54, 198,
  54, 199,
  55, 56,
  55, 58,
  55, 60,
  55, 62,
  55, 64,
  55, 65,
  55, 67,
  55, 68,
  55, 69,
  55, 72,
  55, 77,
  55, 78,
  55, 82,
  55, 87,
  55, 91,
  55, 93,
  55, 94,
  55, 98,
  55, 99,
  55, 100,
  55, 101,
  55, 103,
  55, 104,
  55, 105,
  55, 106,
  55, 107,
  55, 112,
  55, 114,
  55, 116,
  55, 118,
  55, 119,
  55, 122,
  55, 123,
  55, 124,
  55, 125,
  55, 126,
  55, 130,
  55, 131,
  55, 132,
  55, 137,
  55, 138,
  55, 139,
  55, 141,
  55, 142,
  55, 143,
  55, 144,
  55, 145,
  55, 146,
  55, 147,
  55, 154,
  55, 156,
  55, 159,
  55, 161,
  55, 162,
  55, 166,
  55, 172,
  55, 173,
  55, 175,
  55, 176,
  55, 178,
  55, 179,
  55, 180,
  55, 182,
  55, 191,
  55, 192,
  55, 195,
  55, 198,
  55, 200,
  56, 57,
  56, 58,
  56, 62,
  56, 65,
  56, 66,
  56, 67,
  56, 69,
  56, 70,
  56, 71,
  56, 72,
  56, 73,
  56, 78,
  56, 79,
  56, 81,
  56, 82,
  56, 87,
  56, 89,
  56, 92,
  56, 95,
  56, 98,
  56, 103,
  56, 105,
  56, 107,
  56, 108,
  56, 111,
  56, 112,
  56, 115,
  56, 116,
  56, 120,
  56, 122,
  56, 123,
  56, 124,
  56, 126,
  56, 127,
  56, 130,
  56, 131,
  56, 132,
  56, 134,
  56, 135,
  56, 137,
  56, 138,
  56, 139,
  56, 141,
  56, 143,
  56, 145,
  56, 147,
  56, 148,
  56, 150,
  56, 153,
  56, 154,
  56, 157,
  56, 159,
  56, 160,
  56, 161,
  56, 165,
  56, 166,
  56, 168,
  56, 169,
  56, 171,
  56, 172,
  56, 174,
  56, 175,
  56, 176,
  56, 178,
  56, 180,
  56, 182,
  56, 184,
  56, 190,
  56, 192,
  56, 195,
  56, 196,
  56, 200,
  57, 60,
  57, 61,
  57, 62,
  57, 63,
  57, 65,
  57, 68,
  57, 70,
  57, 71,
  57, 72,
  57, 74,
  57, 79,
  57, 80,
  57, 81,
  57, 82,
  57, 83,
  57, 89,
  57, 90,
  57, 92,
  57, 93,
  57, 94,
  57, 98,
  57, 99,
  57, 100,
  57, 101,
  57, 102,
  57, 103,
  57, 106,
  57, 109,
  57, 110,
  57, 112,
  57, 113,
  57, 118,
  57, 119,
  57, 123,
  57, 127,
  57, 128,
  57, 130,
  57, 132,
  57, 133,
  57, 135,
  57, 136,
  57, 137,
  57, 139,
  57, 141,
  57, 146,
  57, 147,
  57, 150,
  57, 151,
  57, 161,
  57, 164,
  57, 165,
  57, 167,
  57, 168,
  57, 172,
  57, 173,
  57, 176,
  57, 178,
  57, 179,
  57, 180,
  57, 183,
  57, 184,
  57, 186,
  57, 187,
  57, 188,
  57, 193,
  57, 194,
  57, 195,
  57, 196,
  57, 197,
  57, 199,
  58, 62,
  58, 63,
  58, 66,
  58, 68,
  58, 71,
  58, 72,
  58, 75,
  58, 78,
  58, 80,
  58, 82,
  58, 83,
  58, 85,
  58, 87,
  58, 91,
  58, 93,
  58, 94,
  58, 95,
  58, 100,
  58, 103,
  58, 104,
  58, 106,
  58, 107,
  58, 108,
  58, 112,
  58, 117,
  58, 119,
  58, 121,
  58, 123,
  58, 125,
  58, 128,
  58, 129,
  58, 133,
  58, 135,
  58, 137,
  58, 138,
  58, 139,
  58, 140,
  58, 142,
  58, 143,
  58, 144,
  58, 145,
  58, 150,
  58, 151,
  58, 154,
  58, 157,
  58, 158,
  58, 159,
  58, 160,
  58, 161,
  58, 163,
  58, 164,
  58, 165,
  58, 166,
  58, 167,
  58, 168,
  58, 170,
  58, 171,
  58, 176,
  58, 177,
  58, 178,
  58, 180,
  58, 185,
  58, 186,
  58, 195,
  58, 198,
  58, 199,
  59, 60,
  59, 61,
  59, 63,
  59, 64,
  59, 65,
  59, 67,
  59, 68,
  59, 69,
  59, 74,
  59, 78,
  59, 81,
  59, 82,
  59, 83,
  59, 84,
  59, 85,
  59, 87,
  59, 90,
  59, 91,
  59, 92,
  59, 93,
  59, 94,
  59, 97,
  59, 100,
  59, 101,
  59, 103,
  59, 108,
  59, 109,
  59, 111,
  59, 114,
  59, 115,
  59, 117,
  59, 121,
  59, 122,
  59, 123,
  59, 124,
  59, 128,
  59, 131,
  59, 134,
  59, 137,
  59, 139,
  59, 140,
  59, 142,
  59, 143,
  59, 144,
  59, 147,
  59, 148,
  59, 149,
  59, 152,
  59, 154,
  59, 155,
  59, 156,
  59, 157,
  59, 159,
  59, 160,
  59, 161,
  59, 164,
  59, 165,
  59, 167,
  59, 168,
  59, 170,
  59, 171,
  59, 173,
  59, 175,
  59, 179,
  59, 182,
  59, 183,
  59, 184,
  59, 185,
  59, 187,
  59, 190,
  59, 191,
  59, 193,
  59, 194,
  59, 198,
  59, 199,
  59, 200,
  60, 63,
  60, 64,
  60, 65,
  60, 67,
  60, 69,
  60, 75,
  60, 76,
  60, 77,
  60, 78,
  60, 80,
  60, 82,
  60, 83,
  60, 84,
  60, 87,
  60, 88,
  60, 90,
  60, 93,
  60, 96,
  60, 98,
  60, 100,
  60, 102,
  60, 104,
  60, 105,
  60, 107,
  60, 108,
  60, 109,
  60, 110,
  60, 111,
  60, 112,
  60, 114,
  60, 115,
  60, 116,
  60, 123,
  60, 128,
  60, 129,
  60, 130,
  60, 132,
  60, 133,
  60, 134,
  60, 136,
  60, 138,
  60, 141,
  60, 142,
  60, 143,
  60, 145,
  60, 149,
  60, 152,
  60, 154,
  60, 155,
  60, 160,
  60, 161,
  60, 162,
  60, 164,
  60, 166,
  60, 168,
  60, 171,
  60, 175,
  60, 176,
  60, 177,
  60, 179,
  60, 180,
  60, 181,
  60, 182,
  60, 183,
  60, 184,
  60, 185,
  60, 186,
  60, 190,
  60, 195,
  60, 197,
  61, 66,
  61, 68,
  61, 69,
  61, 70,
  61, 72,
  61, 73,
  61, 75,
  61, 76,
  61, 77,
  61, 80,
  61, 81,
  61, 85,
  61, 91,
  61, 94,
  61, 98,
  61, 100,
  61, 101,
  61, 104,
  61, 108,
  61, 109,
  61, 111,
  61, 113,
  61, 118,
  61, 119,
  61, 120,
  61, 121,
  61, 123,
  61, 124,
  61, 128,
  61, 130,
  61, 132,
  61, 135,
  61, 138,
  61, 139,
  61, 142,
  61, 144,
  61, 145,
  61, 146,
  61, 151,
  61, 156,
  61, 159,
  61, 160,
  61, 161,
  61, 163,
  61, 164,
  61, 165,
  61, 167,
  61, 171,
  61, 175,
  61, 181,
  61, 183,
  61, 186,
  61, 189,
  61, 194,
  61, 198,
  62, 64,
  62, 65,
  62, 67,
  62, 68,
  62, 71,
  62, 72,
  62, 73,
  62, 75,
  62, 76,
  62, 77,
  62, 83,
  62, 84,
  62, 88,
  62, 89,
  62, 90,
  62, 93,
  62, 94,
  62, 98,
  62, 101,
  62, 102,
  62, 106,
  62, 107,
  62, 109,
  62, 110,
  62, 111,
  62, 112,
  62, 119,
  62, 122,
  62, 124,
  62, 126,
  62, 127,
  62, 130,
  62, 132,
  62, 133,
  62, 136,
  62, 137,
  62, 140,
  62, 142,
  62, 147,
  62, 148,
  62, 151,
  62, 153,
  62, 154,
  62, 155,
  62, 157,
  62, 161,
  62, 163,
  62, 164,
  62, 167,
  62, 170,
  62, 171,
  62, 173,
  62, 178,
  62, 181,
  62, 182,
  62, 184,
  62, 185,
  62, 189,
  62, 191,
  62, 194,
  62, 195,
  62, 196,
  62, 197,
  63, 66,
  63, 67,
  63, 68,
  63, 69,
  63, 73,
  63, 74,
  63, 78,
  63, 79,
  63, 80,
  63, 81,
  63, 82,
  63, 83,
  63, 84,
  63, 87,
  63, 88,
  63, 89,
  63, 90,
  63, 92,
  63, 93,
  63, 94,
  63, 95,
  63, 96,
  63, 97,
  63, 98,
  63, 100,
  63, 101,
  63, 102,
  63, 103,
  63, 104,
  63, 106,
  63, 109,
  63, 110,
  63, 112,
  63, 113,
  63, 114,
  63, 116,
  63, 118,
  63, 120,
  63, 130,
  63, 132,
  63, 134,
  63, 138,
  63, 144,
  63, 148,
  63, 149,
  63, 156,
  63, 158,
  63, 162,
  63, 164,
  63, 165,
  63, 170,
  63, 171,
  63, 173,
  63, 178,
  63, 179,
  63, 182,
  63, 184,
  63, 189,
  63, 191,
  63, 192,
  63, 195,
  63, 197,
  63, 198,
  63, 199,
  63, 200,
  64, 65,
  64, 68,
  64, 71,
  64, 72,
  64, 73,
  64, 74,
  64, 75,
  64, 77,
  64, 79,
  64, 81,
  64, 82,
  64, 83,
  64, 84,
  64, 86,
  64, 90,
  64, 91,
  64, 94,
  64, 96,
  64, 98,
  64, 99,
  64, 104,
  64, 105,
  64, 106,
  64, 107,
  64, 108,
  64, 109,
  64, 110,
  64, 112,
  64, 113,
  64, 114,
  64, 118,
  64, 119,
  64, 121,
  64, 123,
  64, 124,
  64, 127,
  64, 128,
  64, 137,
  64, 143,
  64, 145,
  64, 146,
  64, 147,
  64, 149,
  64, 150,
  64, 154,
  64, 156,
  64, 157,
  64, 163,
  64, 165,
  64, 166,
  64, 167,
  64, 168,
  64, 171,
  64, 174,
  64, 175,
  64, 178,
  64, 179,
  64, 181,
  64, 182,
  64, 184,
  64, 185,
  64, 190,
  64, 191,
  64, 195,
  64, 196,
  64, 198,
  65, 70,
  65, 72,
  65, 73,
  65, 74,
  65, 78,
  65, 82,
  65, 83,
  65, 85,
  65, 86,
  65, 87,
  65, 93,
  65, 95,
  65, 96,
  65, 99,
  65, 101,
  65, 106,
  65, 109,
  65, 111,
  65, 117,
  65, 119,
  65, 123,
  65, 124,
  65, 125,
  65, 129,
  65, 131,
  65, 132,
  65, 134,
  65, 136,
  65, 139,
  65, 140,
  65, 141,
  65, 142,
  65, 143,
  65, 144,
  65, 151,
  65, 157,
  65, 158,
  65, 165,
  65, 166,
  65, 167,
  65, 169,
  65, 172,
  65, 175,
  65, 176,
  65, 177,
  65, 180,
  65, 183,
  65, 186,
  65, 188,
  65, 189,
  65, 191,
  65, 192,
  65, 195,
  65, 197,
  66, 68,
  66, 70,
  66, 71,
  66, 74,
  66, 76,
  66, 77,
  66, 79,
  66, 80,
  66, 81,
  66, 87,
  66, 88,
  66, 90,
  66, 91,
  66, 95,
  66, 97,
  66, 99,
  66, 100,
  66, 101,
  66, 102,
  66, 105,
  66, 108,
  66, 109,
  66, 110,
  66, 112,
  66, 113,
  66, 115,
  66, 120,
  66, 121,
  66, 122,
  66, 124,
  66, 127,
  66, 129,
  66, 130,
  66, 131,
  66, 133,
  66, 135,
  66, 136,
  66, 137,
  66, 139,
  66, 140,
  66, 142,
  66, 143,
  66, 144,
  66, 149,
  66, 152,
  66, 155,
  66, 156,
  66, 158,
  66, 159,
  66, 160,
  66, 161,
  66, 162,
  66, 163,
  66, 164,
  66, 165,
  66, 166,
  66, 168,
  66, 169,
  66, 171,
  66, 173,
  66, 174,
  66, 175,
  66, 177,
  66, 178,
  66, 179,
  66, 182,
  66, 185,
  66, 186,
  66, 187,
  66, 191,
  66, 196,
  66, 197,
  66, 198,
  66, 199,
  67, 71,
  67, 72,
  67, 73,
  67, 76,
  67, 78,
  67, 80,
  67, 82,
  67, 85,
  67, 86,
  67, 87,
  67, 88,
  67, 91,
  67, 92,
  67, 93,
  67, 94,
  67, 96,
  67, 100,
  67, 103,
  67, 104,
  67, 107,
  67, 108,
  67, 109,
  67, 110,
  67, 112,
  67, 116,
  67, 118,
  67, 119,
  67, 123,
  67, 125,
  67, 126,
  67, 127,
  67, 131,
  67, 132,
  67, 133,
  67, 134,
  67, 136,
  67, 138,
  67, 141,
  67, 144,
  67, 146,
  67, 147,
  67, 149,
  67, 152,
  67, 153,
  67, 154,
  67, 161,
  67, 164,
  67, 165,
  67, 168,
  67, 169,
  67, 170,
  67, 171,
  67, 172,
  67, 173,
  67, 175,
  67, 176,
  67, 177,
  67, 179,
  67, 180,
  67, 181,
  67, 182,
  67, 183,
  67, 184,
  67, 185,
  67, 190,
  67, 194,
  67, 195,
  67, 199,
  67, 200,
  68, 74,
  68, 76,
  68, 77,
  68, 78,
  68, 80,
  68, 81,
  68, 82,
  68, 84,
  68, 85,
  68, 87,
  68, 90,
  68, 91,
  68, 92,
  68, 94,
  68, 95,
  68, 98,
  68, 100,
  68, 101,
  68, 102,
  68, 107,
  68, 110,
  68, 112,
  68, 113,
  68, 118,
  68, 119,
  68, 120,
  68, 121,
  68, 124,
  68, 126,
  68, 128,
  68, 129,
  68, 130,
  68, 132,
  68, 133,
  68, 136,
  68, 137,
  68, 139,
  68, 142,
  68, 143,
  68, 146,
  68, 147,
  68, 148,
  68, 151,
  68, 155,
  68, 156,
  68, 157,
  68, 159,
  68, 160,
  68, 163,
  68, 164,
  68, 166,
  68, 167,
  68, 171,
  68, 172,
  68, 174,
  68, 175,
  68, 176,
  68, 177,
  68, 178,
  68, 179,
  68, 180,
  68, 182,
  68, 183,
  68, 185,
  68, 186,
  68, 188,
  68, 190,
  68, 193,
  69, 72,
  69, 73,
  69, 77,
  69, 78,
  69, 80,
  69, 81,
  69, 85,
  69, 86,
  69, 87,
  69, 88,
  69, 89,
  69, 90,
  69, 91,
  69, 92,
  69, 96,
  69, 100,
  69, 101,
  69, 104,
  69, 106,
  69, 107,
  69, 109,
  69, 111,
  69, 112,
  69, 113,
  69, 114,
  69, 115,
  69, 116,
  69, 117,
  69, 118,
  69, 119,
  69, 121,
  69, 123,
  69, 126,
  69, 127,
  69, 128,
  69, 129,
  69, 130,
  69, 136,
  69, 139,
  69, 141,
  69, 142,
  69, 143,
  69, 144,
  69, 145,
  69, 146,
  69, 148,
  69, 149,
  69, 153,
  69, 154,
  69, 155,
  69, 156,
  69, 157,
  69, 167,
  69, 169,
  69, 170,
  69, 172,
  69, 174,
  69, 175,
  69, 177,
  69, 180,
  69, 181,
  69, 183,
  69, 184,
  69, 186,
  69, 187,
  69, 188,
  69, 192,
  69, 195,
  69, 199,
  69, 200,
  70, 71,
  70, 74,
  70, 75,
  70, 76,
  70, 77,
  70, 78,
  70, 81,
  70, 83,
  70, 85,
  70, 87,
  70, 88,
  70, 89,
  70, 91,
  70, 92,
  70, 93,
  70, 94,
  70, 95,
  70, 100,
  70, 102,
  70, 105,
  70, 106,
  70, 109,
  70, 110,
  70, 112,
  70, 113,
  70, 114,
  70, 117,
  70, 121,
  70, 122,
  70, 124,
  70, 126,
  70, 130,
  70, 131,
  70, 132,
  70, 137,
  70, 138,
  70, 140,
  70, 141,
  70, 145,
  70, 146,
  70, 148,
  70, 149,
  70, 152,
  70, 154,
  70, 156,
  70, 162,
  70, 170,
  70, 173,
  70, 175,
  70, 176,
  70, 179,
  70, 180,
  70, 181,
  70, 183,
  70, 184,
  70, 186,
  70, 190,
  70, 191,
  70, 192,
  70, 198,
  71, 72,
  71, 73,
  71, 74,
  71, 76,
  71, 77,
  71, 79,
  71, 83,
  71, 84,
  71, 85,
  71, 87,
  71, 91,
  71, 92,
  71, 96,
  71, 99,
  71, 100,
  71, 101,
  71, 105,
  71, 106,
  71, 115,
  71, 119,
  71, 120,
  71, 121,
  71, 129,
  71, 130,
  71, 134,
  71, 135,
  71, 136,
  71, 138,
  71, 139,
  71, 140,
  71, 141,
  71, 143,
  71, 144,
  71, 146,
  71, 148,
  71, 150,
  71, 151,
  71, 153,
  71, 154,
  71, 155,
  71, 161,
  71, 164,
  71, 165,
  71, 170,
  71, 174,
  71, 177,
  71, 180,
  71, 183,
  71, 184,
  71, 185,
  71, 189,
  71, 190,
  71, 193,
  71, 194,
  71, 195,
  71, 197,
  72, 74,
  72, 79,
  72, 81,
  72, 85,
  72, 90,
  72, 92,
  72, 93,
  72, 96,
  72, 97,
  72, 98,
  72, 100,
  72, 104,
  72, 105,
  72, 106,
  72, 109,
  72, 110,
  72, 112,
  72, 113,
  72, 114,
  72, 117,
  72, 119,
  72, 122,
  72, 123,
  72, 125,
  72, 126,
  72, 127,
  72, 129,
  72, 133,
  72, 139,
  72, 140,
  72, 144,
  72, 145,
  72, 146,
  72, 147,
  72, 149,
  72, 152,
  72, 153,
  72, 157,
  72, 158,
  72, 160,
  72, 161,
  72, 162,
  72, 163,
  72, 164,
  72, 165,
  72, 167,
  72, 169,
  72, 171,
  72, 175,
  72, 176,
  72, 178,
  72, 182,
  72, 187,
  72, 188,
  72, 191,
  72, 192,
  72, 193,
  72, 194,
  72, 196,
  73, 77,
  73, 78,
  73, 79,
  73, 81,
  73, 83,
  73, 86,
  73, 88,
  73, 89,
  73, 90,
  73, 93,
  73, 95,
  73, 96,
  73, 97,
  73, 100,
  73, 101,
  73, 102,
  73, 103,
  73, 106,
  73, 107,
  73, 111,
  73, 116,
  73, 117,
  73, 118,
  73, 120,
  73, 121,
  73, 122,
  73, 123,
  73, 126,
  73, 128,
  73, 129,
  73, 132,
  73, 133,
  73, 141,
  73, 146,
  73, 147,
  73, 148,
  73, 149,
  73, 151,
  73, 152,
  73, 157,
  73, 159,
  73, 161,
  73, 167,
  73, 169,
  73, 170,
  73, 171,
  73, 172,
  73, 173,
  73, 174,
  73, 175,
  73, 179,
  73, 180,
  73, 182,
  73, 184,
  73, 189,
  73, 196,
  73, 197,
  73, 198,
  73, 199,
  73, 200,
  74, 76,
  74, 78,
  74, 81,
  74, 83,
  74, 84,
  74, 87,
  74, 93,
  74, 94,
  74, 96,
  74, 97,
  74, 100,
  74, 104,
  74, 105,
  74, 106,
  74, 113,
  74, 114,
  74, 115,
  74, 117,
  74, 119,
  74, 122,
  74, 123,
  74, 125,
  74, 126,
  74, 128,
  74, 130,
  74, 131,
  74, 132,
  74, 133,
  74, 136,
  74, 141,
  74, 144,
  74, 150,
  74, 151,
  74, 154,
  74, 155,
  74, 156,
  74, 159,
  74, 160,
  74, 161,
  74, 162,
  74, 163,
  74, 165,
  74, 172,
  74, 174,
  74, 175,
  74, 180,
  74, 181,
  74, 184,
  74, 185,
  74, 186,
  74, 188,
  74, 190,
  74, 192,
  74, 193,
  74, 195,
  74, 196,
  74, 197,
  74, 198,
  75, 76,
  75, 79,
  75, 80,
  75, 83,
  75, 85,
  75, 88,
  75, 89,
  75, 90,
  75, 92,
  75, 94,
  75, 98,
  75, 100,
  75, 104,
  75, 108,
  75, 111,
  75, 112,
  75, 114,
  75, 117,
  75, 120,
  75, 122,
  75, 123,
  75, 124,
  75, 125,
  75, 129,
  75, 132,
  75, 133,
  75, 135,
  75, 136,
  75, 138,
  75, 140,
  75, 141,
  75, 143,
  75, 145,
  75, 147,
  75, 149,
  75, 150,
  75, 151,
  75, 152,
  75, 155,
  75, 156,
  75, 158,
  75, 159,
  75, 160,
  75, 162,
  75, 163,
  75, 166,
  75, 167,
  75, 168,
  75, 169,
  75, 170,
  75, 172,
  75, 173,
  75, 175,
  75, 176,
  75, 177,
  75, 179,
  75, 180,
  75, 182,
  75, 184,
  75, 185,
  75, 191,
  75, 196,
  75, 197,
  75, 199,
  75, 200,
  76, 77,
  76, 80,
  76, 81,
  76, 89,
  76, 90,
  76, 91,
  76, 92,
  76, 96,
  76, 98,
  76, 101,
  76, 103,
  76, 105,
  76, 106,
  76, 109,
  76, 110,
  76, 113,
  76, 114,
  76, 117,
  76, 118,
  76, 119,
  76, 120,
  76, 123,
  76, 128,
  76, 129,
  76, 130,
  76, 133,
  76, 134,
  76, 135,
  76, 136,
  76, 137,
  76, 141,
  76, 142,
  76, 143,
  76, 144,
  76, 147,
  76, 148,
  76, 149,
  76, 150,
  76, 151,
  76, 154,
  76, 155,
  76, 156,
  76, 158,
  76, 159,
  76, 160,
  76, 161,
  76, 162,
  76, 163,
  76, 165,
  76, 166,
  76, 167,
  76, 168,
  76, 171,
  76, 172,
  76, 174,
  76, 178,
  76, 179,
  76, 180,
  76, 183,
  76, 184,
  76, 185,
  76, 186,
  76, 188,
  76, 190,
  76, 191,
  76, 192,
  76, 194,
  76, 195,
  76, 197,
  76, 198,
  77, 81,
  77, 82,
  77, 84,
  77, 88,
  77, 93,
  77, 94,
  77, 96,
  77, 98,
  77, 99,
  77, 102,
  77, 105,
  77, 108,
  77, 111,
  77, 113,
  77, 115,
  77, 116,
  77, 117,
  77, 119,
  77, 122,
  77, 124,
  77, 125,
  77, 126,
  77, 129,
  77, 130,
  77, 132,
  77, 134,
  77, 138,
  77, 143,
  77, 145,
  77, 146,
  77, 147,
  77, 148,
  77, 150,
  77, 151,
  77, 152,
  77, 153,
  77, 157,
  77, 160,
  77, 161,
  77, 162,
  77, 163,
  77, 164,
  77, 165,
  77, 166,
  77, 167,
  77, 169,
  77, 171,
  77, 172,
  77, 173,
  77, 176,
  77, 178,
  77, 179,
  77, 180,
  77, 182,
  77, 183,
  77, 185,
  77, 189,
  77, 192,
  77, 196,
  77, 197,
  77, 198,
  77, 199,
  78, 83,
  78, 84,
  78, 89,
  78, 91,
  78, 92,
  78, 93,
  78, 94,
  78, 96,
  78, 98,
  78, 101,
  78, 105,
  78, 108,
  78, 109,
  78, 112,
  78, 113,
  78, 114,
  78, 115,
  78, 117,
  78, 118,
  78, 119,
  78, 120,
  78, 122,
  78, 124,
  78, 127,
  78, 128,
  78, 129,
  78, 130,
  78, 133,
  78, 136,
  78, 137,
  78, 139,
  78, 140,
  78, 141,
  78, 142,
  78, 145,
  78, 147,
  78, 148,
  78, 149,
  78, 151,
  78, 153,
  78, 155,
  78, 156,
  78, 158,
  78, 161,
  78, 162,
  78, 163,
  78, 165,
  78, 166,
  78, 167,
  78, 170,
  78, 173,
  78, 174,
  78, 176,
  78, 179,
  78, 180,
  78, 181,
  78, 182,
  78, 183,
  78, 185,
  78, 189,
  78, 190,
  78, 191,
  78, 197,
  78, 198,
  78, 200,
  79, 80,
  79, 85,
  79, 88,
  79, 91,
  79, 93,
  79, 94,
  79, 95,
  79, 96,
  79, 97,
  79, 98,
  79, 104,
  79, 108,
  79, 111,
  79, 112,
  79, 113,
  79, 115,
  79, 116,
  79, 121,
  79, 122,
  79, 126,
  79, 127,
  79, 133,
  79, 134,
  79, 136,
  79, 137,
  79, 139,
  79, 143,
  79, 145,
  79, 148,
  79, 149,
  79, 153,
  79, 154,
  79, 156,
  79, 157,
  79, 160,
  79, 162,
  79, 164,
  79, 165,
  79, 167,
  79, 169,
  79, 171,
  79, 172,
  79, 174,
  79, 175,
  79, 176,
  79, 177,
  79, 179,
  79, 181,
  79, 184,
  79, 185,
  79, 186,
  79, 188,
  79, 190,
  79, 192,
  79, 198,
  79, 199,
  79, 200,
  80, 82,
  80, 87,
  80, 92,
  80, 94,
  80, 96,
  80, 97,
  80, 101,
  80, 102,
  80, 107,
  80, 108,
  80, 111,
  80, 113,
  80, 114,
  80, 118,
  80, 120,
  80, 121,
  80, 124,
  80, 125,
  80, 135,
  80, 139,
  80, 141,
  80, 143,
  80, 144,
  80, 145,
  80, 147,
  80, 152,
  80, 153,
  80, 154,
  80, 156,
  80, 157,
  80, 158,
  80, 160,
  80, 161,
  80, 164,
  80, 165,
  80, 170,
  80, 173,
  80, 175,
  80, 176,
  80, 177,
  80, 178,
  80, 180,
  80, 182,
  80, 184,
  80, 185,
  80, 192,
  80, 196,
  81, 83,
  81, 89,
  81, 90,
  81, 92,
  81, 93,
  81, 94,
  81, 96,
  81, 97,
  81, 99,
  81, 100,
  81, 101,
  81, 102,
  81, 103,
  81, 106,
  81, 109,
  81, 112,
  81, 113,
  81, 114,
  81, 115,
  81, 117,
  81, 122,
  81, 123,
  81, 126,
  81, 130,
  81, 131,
  81, 132,
  81, 133,
  81, 134,
  81, 135,
  81, 136,
  81, 141,
  81, 142,
  81, 145,
  81, 146,
  81, 150,
  81, 151,
  81, 152,
  81, 154,
  81, 155,
  81, 157,
  81, 161,
  81, 164,
  81, 167,
  81, 168,
  81, 169,
  81, 174,
  81, 175,
  81, 176,
  81, 177,
  81, 179,
  81, 184,
  81, 185,
  81, 188,
  81, 189,
  81, 192,
  81, 198,
  81, 200,
  82, 83,
  82, 86,
  82, 87,
  82, 88,
  82, 91,
  82, 92,
  82, 95,
  82, 98,
  82, 99,
  82, 101,
  82, 102,
  82, 106,
  82, 107,
  82, 108,
  82, 110,
  82, 111,
  82, 112,
  82, 116,
  82, 118,
  82, 119,
  82, 120,
  82, 121,
  82, 124,
  82, 125,
  82, 126,
  82, 128,
  82, 129,
  82, 133,
  82, 134,
  82, 135,
  82, 136,
  82, 139,
  82, 141,
  82, 142,
  82, 145,
  82, 151,
  82, 154,
  82, 155,
  82, 161,
  82, 162,
  82, 164,
  82, 166,
  82, 167,
  82, 169,
  82, 170,
  82, 175,
  82, 177,
  82, 178,
  82, 180,
  82, 188,
  82, 189,
  82, 192,
  82, 193,
  82, 195,
  82, 197,
  82, 198,
  82, 200,
  83, 90,
  83, 91,
  83, 92,
  83, 93,
  83, 96,
  83, 99,
  83, 103,
  83, 104,
  83, 106,
  83, 108,
  83, 112,
  83, 116,
  83, 117,
  83, 118,
  83, 119,
  83, 121,
  83, 125,
  83, 126,
  83, 127,
  83, 128,
  83, 129,
  83, 130,
  83, 131,
  83, 132,
  83, 135,
  83, 141,
  83, 144,
  83, 146,
  83, 147,
  83, 148,
  83, 149,
  83, 150,
  83, 152,
  83, 153,
  83, 154,
  83, 158,
  83, 160,
  83, 161,
  83, 163,
  83, 164,
  83, 165,
  83, 167,
  83, 171,
  83, 172,
  83, 173,
  83, 175,
  83, 176,
  83, 180,
  83, 181,
  83, 182,
  83, 184,
  83, 187,
  83, 189,
  83, 190,
  83, 194,
  83, 196,
  83, 199,
  83, 200,
  84, 85,
  84, 87,
  84, 88,
  84, 90,
  84, 91,
  84, 95,
  84, 96,
  84, 98,
  84, 99,
  84, 100,
  84, 101,
  84, 103,
  84, 104,
  84, 105,
  84, 109,
  84, 114,
  84, 115,
  84, 116,
  84, 119,
  84, 122,
  84, 123,
  84, 125,
  84, 127,
  84, 129,
  84, 130,
  84, 131,
  84, 137,
  84, 138,
  84, 142,
  84, 143,
  84, 145,
  84, 146,
  84, 147,
  84, 148,
  84, 150,
  84, 152,
  84, 153,
  84, 154,
  84, 155,
  84, 156,
  84, 158,
  84, 159,
  84, 161,
  84, 162,
  84, 163,
  84, 164,
  84, 166,
  84, 174,
  84, 175,
  84, 178,
  84, 179,
  84, 180,
  84, 183,
  84, 188,
  84, 189,
  84, 191,
  84, 192,
  84, 194,
  84, 195,
  84, 196,
  84, 199,
  84, 200,
  85, 88,
  85, 89,
  85, 91,
  85, 93,
  85, 94,
  85, 96,
  85, 99,
  85, 101,
  85, 105,
  85, 106,
  85, 108,
  85, 109,
  85, 111,
  85, 112,
  85, 113,
  85, 114,
  85, 116,
  85, 117,
  85, 118,
  85, 119,
  85, 120,
  85, 121,
  85, 122,
  85, 123,
  85, 125,
  85, 126,
  85, 127,
  85, 129,
  85, 130,
  85, 131,
  85, 132,
  85, 133,
  85, 135,
  85, 141,
  85, 142,
  85, 143,
  85, 144,
  85, 146,
  85, 147,
  85, 148,
  85, 149,
  85, 150,
  85, 151,
  85, 156,
  85, 158,
  85, 159,
  85, 164,
  85, 166,
  85, 167,
  85, 170,
  85, 172,
  85, 173,
  85, 175,
  85, 177,
  85, 180,
  85, 182,
  85, 186,
  85, 191,
  85, 192,
  85, 194,
  85, 197,
  85, 198,
  85, 200,
  86, 88,
  86, 90,
  86, 92,
  86, 94,
  86, 95,
  86, 98,
  86, 104,
  86, 105,
  86, 107,
  86, 108,
  86, 109,
  86, 111,
  86, 112,
  86, 114,
  86, 115,
  86, 118,
  86, 119,
  86, 120,
  86, 121,
  86, 122,
  86, 123,
  86, 125,
  86, 127,
  86, 129,
  86, 131,
  86, 134,
  86, 135,
  86, 136,
  86, 138,
  86, 142,
  86, 144,
  86, 146,
  86, 147,
  86, 148,
  86, 152,
  86, 155,
  86, 157,
  86, 158,
  86, 159,
  86, 162,
  86, 164,
  86, 166,
  86, 167,
  86, 169,
  86, 171,
  86, 176,
  86, 177,
  86, 178,
  86, 179,
  86, 181,
  86, 186,
  86, 187,
  86, 189,
  86, 190,
  86, 191,
  86, 192,
  86, 193,
  86, 195,
  86, 196,
  86, 197,
  86, 198,
  87, 88,
  87, 91,
  87, 95,
  87, 97,
  87, 98,
  87, 99,
  87, 102,
  87, 105,
  87, 106,
  87, 110,
  87, 114,
  87, 116,
  87, 118,
  87, 121,
  87, 122,
  87, 125,
  87, 127,
  87, 128,
  87, 129,
  87, 130,
  87, 132,
  87, 133,
  87, 134,
  87, 136,
  87, 138,
  87, 141,
  87, 144,
  87, 146,
  87, 147,
  87, 148,
  87, 154,
  87, 155,
  87, 156,
  87, 161,
  87, 162,
  87, 163,
  87, 164,
  87, 165,
  87, 166,
  87, 168,
  87, 169,
  87, 170,
  87, 172,
  87, 175,
  87, 179,
  87, 181,
  87, 183,
  87, 184,
  87, 185,
  87, 186,
  87, 187,
  87, 190,
  87, 198,
  87, 200,
  88, 89,
  88, 91,
  88, 95,
  88, 97,
  88, 100,
  88, 101,
  88, 103,
  88, 105,
  88, 108,
  88, 109,
  88, 110,
  88, 111,
  88, 112,
  88, 114,
  88, 115,
  88, 116,
  88, 119,
  88, 122,
  88, 124,
  88, 125,
  88, 129,
  88, 133,
  88, 135,
  88, 138,
  88, 143,
  88, 145,
  88, 146,
  88, 147,
  88, 149,
  88, 152,
  88, 156,
  88, 157,
  88, 158,
  88, 165,
  88, 166,
  88, 168,
  88, 169,
  88, 172,
  88, 175,
  88, 176,
  88, 183,
  88, 184,
  88, 185,
  88, 186,
  88, 187,
  88, 188,
  88, 193,
  88, 194,
  88, 195,
  88, 196,
  88, 197,
  88, 198,
  88, 199,
  89, 90,
  89, 92,
  89, 93,
  89, 95,
  89, 96,
  89, 97,
  89, 99,
  89, 101,
  89, 102,
  89, 103,
  89, 104,
  89, 105,
  89, 106,
  89, 107,
  89, 109,
  89, 112,
  89, 114,
  89, 115,
  89, 117,
  89, 120,
  89, 123,
  89, 125,
  89, 127,
  89, 128,
  89, 129,
  89, 130,
  89, 133,
  89, 135,
  89, 138,
  89, 139,
  89, 140,
  89, 141,
  89, 142,
  89, 144,
  89, 145,
  89, 151,
  89, 152,
  89, 153,
  89, 154,
  89, 156,
  89, 157,
  89, 159,
  89, 160,
  89, 161,
  89, 164,
  89, 165,
  89, 166,
  89, 168,
  89, 169,
  89, 170,
  89, 171,
  89, 173,
  89, 174,
  89, 175,
  89, 176,
  89, 177,
  89, 178,
  89, 182,
  89, 183,
  89, 187,
  89, 189,
  89, 192,
  89, 194,
  89, 199,
  89, 200,
  90, 92,
  90, 94,
  90, 101,
  90, 102,
  90, 104,
  90, 110,
  90, 113,
  90, 114,
  90, 116,
  90, 117,
  90, 118,
  90, 119,
  90, 120,
  90, 121,
  90, 125,
  90, 127,
  90, 129,
  90, 131,
  90, 133,
  90, 134,
  90, 139,
  90, 140,
  90, 143,
  90, 144,
  90, 146,
  90, 149,
  90, 152,
  90, 154,
  90, 155,
  90, 156,
  90, 157,
  90, 158,
  90, 159,
  90, 160,
  90, 161,
  90, 163,
  90, 166,
  90, 171,
  90, 173,
  90, 174,
  90, 175,
  90, 177,
  90, 179,
  90, 183,
  90, 187,
  90, 188,
  90, 191,
  90, 192,
  90, 194,
  90, 195,
  90, 199,
  91, 93,
  91, 96,
  91, 99,
  91, 104,
  91, 105,
  91, 106,
  91, 109,
  91, 111,
  91, 112,
  91, 113,
  91, 114,
  91, 116,
  91, 117,
  91, 119,
  91, 121,
  91, 124,
  91, 126,
  91, 131,
  91, 132,
  91, 133,
  91, 135,
  91, 141,
  91, 142,
  91, 146,
  91, 147,
  91, 149,
  91, 150,
  91, 151,
  91, 152,
  91, 154,
  91, 155,
  91, 156,
  91, 159,
  91, 163,
  91, 165,
  91, 169,
  91, 170,
  91, 171,
  91, 172,
  91, 176,
  91, 178,
  91, 179,
  91, 180,
  91, 182,
  91, 185,
  91, 186,
  91, 187,
  91, 188,
  91, 189,
  91, 194,
  91, 196,
  91, 197,
  91, 199,
  91, 200,
  92, 93,
  92, 97,
  92, 98,
  92, 99,
  92, 103,
  92, 104,
  92, 107,
  92, 108,
  92, 109,
  92, 110,
  92, 111,
  92, 114,
  92, 117,
  92, 119,
  92, 120,
  92, 121,
  92, 122,
  92, 124,
  92, 125,
  92, 126,
  92, 127,
  92, 128,
  92, 130,
  92, 131,
  92, 132,
  92, 133,
  92, 138,
  92, 142,
  92, 143,
  92, 144,
  92, 145,
  92, 147,
  92, 149,
  92, 150,
  92, 151,
  92, 154,
  92, 156,
  92, 157,
  92, 159,
  92, 162,
  92, 168,
  92, 171,
  92, 172,
  92, 173,
  92, 174,
  92, 175,
  92, 176,
  92, 179,
  92, 180,
  92, 181,
  92, 182,
  92, 184,
  92, 185,
  92, 188,
  92, 192,
  92, 195,
  92, 196,
  92, 197,
  93, 95,
  93, 96,
  93, 101,
  93, 104,
  93, 105,
  93, 110,
  93, 111,
  93, 115,
  93, 117,
  93, 119,
  93, 120,
  93, 121,
  93, 122,
  93, 124,
  93, 125,
  93, 126,
  93, 127,
  93, 128,
  93, 130,
  93, 133,
  93, 134,
  93, 136,
  93, 137,
  93, 138,
  93, 140,
  93, 141,
  93, 145,
  93, 148,
  93, 149,
  93, 151,
  93, 152,
  93, 154,
  93, 159,
  93, 160,
  93, 163,
  93, 167,
  93, 170,
  93, 171,
  93, 172,
  93, 173,
  93, 174,
  93, 176,
  93, 177,
  93, 178,
  93, 181,
  93, 182,
  93, 183,
  93, 186,
  93, 191,
  93, 192,
  93, 193,
  93, 194,
  93, 198,
  94, 95,
  94, 98,
  94, 99,
  94, 101,
  94, 102,
  94, 107,
  94, 108,
  94, 116,
  94, 117,
  94, 120,
  94, 122,
  94, 123,
  94, 130,
  94, 131,
  94, 135,
  94, 138,
  94, 142,
  94, 143,
  94, 146,
  94, 147,
  94, 148,
  94, 152,
  94, 153,
  94, 157,
  94, 158,
  94, 160,
  94, 163,
  94, 164,
  94, 165,
  94, 169,
  94, 173,
  94, 178,
  94, 180,
  94, 182,
  94, 184,
  94, 189,
  94, 196,
  95, 96,
  95, 100,
  95, 101,
  95, 104,
  95, 105,
  95, 110,
  95, 111,
  95, 112,
  95, 116,
  95, 118,
  95, 119,
  95, 121,
  95, 122,
  95, 126,
  95, 127,
  95, 129,
  95, 131,
  95, 132,
  95, 134,
  95, 136,
  95, 138,
  95, 139,
  95, 140,
  95, 142,
  95, 144,
  95, 147,
  95, 148,
  95, 150,
  95, 153,
  95, 155,
  95, 156,
  95, 157,
  95, 161,
  95, 162,
  95, 163,
  95, 164,
  95, 165,
  95, 169,
  95, 170,
  95, 173,
  95, 176,
  95, 177,
  95, 178,
  95, 184,
  95, 185,
  95, 188,
  95, 189,
  95, 191,
  95, 194,
  95, 195,
  95, 197,
  95, 199,
  96, 97,
  96, 98,
  96, 99,
  96, 100,
  96, 102,
  96, 103,
  96, 105,
  96, 110,
  96, 112,
  96, 115,
  96, 116,
  96, 119,
  96, 121,
  96, 123,
  96, 124,
  96, 126,
  96, 127,
  96, 128,
  96, 130,
  96, 135,
  96, 137,
  96, 140,
  96, 143,
  96, 147,
  96, 148,
  96, 149,
  96, 151,
  96, 153,
  96, 157,
  96, 159,
  96, 162,
  96, 163,
  96, 165,
  96, 167,
  96, 168,
  96, 169,
  96, 173,
  96, 176,
  96, 177,
  96, 179,
  96, 180,
  96, 182,
  96, 183,
  96, 184,
  96, 187,
  96, 190,
  96, 193,
  96, 195,
  96, 200,
  97, 98,
  97, 99,
  97, 100,
  97, 101,
  97, 107,
  97, 112,
  97, 113,
  97, 115,
  97, 118,
  97, 120,
  97, 121,
  97, 128,
  97, 129,
  97, 130,
  97, 131,
  97, 133,
  97, 134,
  97, 137,
  97, 142,
  97, 145,
  97, 149,
  97, 150,
  97, 154,
  97, 157,
  97, 158,
  97, 161,
  97, 162,
  97, 163,
  97, 165,
  97, 166,
  97, 167,
  97, 168,
  97, 169,
  97, 172,
  97, 174,
  97, 176,
  97, 177,
  97, 179,
  97, 180,
  97, 181,
  97, 185,
  97, 186,
  97, 188,
  97, 189,
  97, 190,
  97, 191,
  97, 193,
  97, 196,
  97, 197,
  98, 99,
  98, 100,
  98, 102,
  98, 103,
  98, 104,
  98, 105,
  98, 108,
  98, 109,
  98, 112,
  98, 115,
  98, 116,
  98, 118,
  98, 121,
  98, 123,
  98, 125,
  98, 127,
  98, 128,
  98, 129,
  98, 132,
  98, 133,
  98, 134,
  98, 135,
  98, 136,
  98, 139,
  98, 140,
  98, 147,
  98, 151,
  98, 153,
  98, 154,
  98, 156,
  98, 158,
  98, 159,
  98, 163,
  98, 164,
  98, 165,
  98, 167,
  98, 168,
  98, 169,
  98, 170,
  98, 172,
  98, 173,
  98, 174,
  98, 176,
  98, 178,
  98, 179,
  98, 181,
  98, 182,
  98, 184,
  98, 185,
  98, 187,
  98, 191,
  98, 192,
  98, 195,
  98, 196,
  99, 102,
  99, 108,
  99, 114,
  99, 116,
  99, 117,
  99, 119,
  99, 120,
  99, 121,
  99, 122,
  99, 124,
  99, 127,
  99, 128,
  99, 130,
  99, 131,
  99, 135,
  99, 137,
  99, 138,
  99, 141,
  99, 145,
  99, 146,
  99, 148,
  99, 150,
  99, 151,
  99, 152,
  99, 153,
  99, 154,
  99, 155,
  99, 157,
  99, 159,
  99, 160,
  99, 161,
  99, 163,
  99, 164,
  99, 168,
  99, 171,
  99, 172,
  99, 173,
  99, 174,
  99, 177,
  99, 178,
  99, 179,
  99, 184,
  99, 185,
  99, 186,
  99, 187,
  99, 188,
  99, 190,
  99, 194,
  99, 196,
  99, 199,
  99, 200,
  100, 101,
  100, 102,
  100, 103,
  100, 104,
  100, 106,
  100, 108,
  100, 110,
  100, 112,
  100, 114,
  100, 115,
  100, 116,
  100, 117,
  100, 124,
  100, 125,
  100, 126,
  100, 127,
  100, 128,
  100, 129,
  100, 130,
  100, 131,
  100, 132,
  100, 138,
  100, 139,
  100, 140,
  100, 141,
  100, 144,
  100, 146,
  100, 148,
  100, 150,
  100, 152,
  100, 154,
  100, 157,
  100, 159,
  100, 160,
  100, 162,
  100, 164,
  100, 166,
  100, 167,
  100, 168,
  100, 169,
  100, 170,
  100, 171,
  100, 173,
  100, 174,
  100, 175,
  100, 176,
  100, 179,
  100, 180,
  100, 181,
  100, 183,
  100, 184,
  100, 185,
  100, 187,
  100, 195,
  100, 196,
  100, 197,
  100, 198,
  100, 200,
  101, 103,
  101, 108,
  101, 110,
  101, 116,
  101, 117,
  101, 118,
  101, 119,
  101, 120,
  101, 121,
  101, 122,
  101, 124,
  101, 125,
  101, 126,
  101, 127,
  101, 128,
  101, 131,
  101, 134,
  101, 138,
  101, 139,
  101, 141,
  101, 146,
  101, 147,
  101, 148,
  101, 149,
  101, 153,
  101, 154,
  101, 157,
  101, 160,
  101, 161,
  101, 165,
  101, 166,
  101, 167,
  101, 168,
  101, 169,
  101, 171,
  101, 172,
  101, 173,
  101, 174,
  101, 177,
  101, 179,
  101, 180,
  101, 181,
  101, 182,
  101, 183,
  101, 184,
  101, 186,
  101, 188,
  101, 189,
  101, 192,
  101, 195,
  101, 196,
  101, 197,
  102, 105,
  102, 108,
  102, 112,
  102, 116,
  102, 117,
  102, 118,
  102, 119,
  102, 120,
  102, 123,
  102, 124,
  102, 125,
  102, 126,
  102, 129,
  102, 130,
  102, 134,
  102, 137,
  102, 140,
  102, 144,
  102, 150,
  102, 151,
  102, 156,
  102, 158,
  102, 165,
  102, 169,
  102, 170,
  102, 171,
  102, 178,
  102, 180,
  102, 189,
  102, 190,
  102, 191,
  102, 194,
  102, 195,
  102, 196,
  102, 199,
  103, 104,
  103, 105,
  103, 106,
  103, 108,
  103, 114,
  103, 115,
  103, 116,
  103, 117,
  103, 119,
  103, 120,
  103, 121,
  103, 124,
  103, 127,
  103, 130,
  103, 134,
  103, 135,
  103, 138,
  103, 139,
  103, 140,
  103, 142,
  103, 143,
  103, 145,
  103, 147,
  103, 149,
  103, 150,
  103, 151,
  103, 152,
  103, 154,
  103, 155,
  103, 156,
  103, 158,
  103, 160,
  103, 162,
  103, 165,
  103, 166,
  103, 167,
  103, 180,
  103, 181,
  103, 183,
  103, 184,
  103, 189,
  103, 192,
  103, 197,
  103, 199,
  104, 106,
  104, 109,
  104, 110,
  104, 111,
  104, 113,
  104, 115,
  104, 117,
  104, 118,
  104, 122,
  104, 123,
  104, 124,
  104, 125,
  104, 128,
  104, 129,
  104, 130,
  104, 131,
  104, 132,
  104, 133,
  104, 135,
  104, 136,
  104, 137,
  104, 138,
  104, 142,
  104, 143,
  104, 145,
  104, 146,
  104, 147,
  104, 151,
  104, 152,
  104, 153,
  104, 157,
  104, 160,
  104, 161,
  104, 165,
  104, 166,
  104, 167,
  104, 168,
  104, 169,
  104, 172,
  104, 173,
  104, 174,
  104, 176,
  104, 178,
  104, 180,
  104, 182,
  104, 184,
  104, 186,
  104, 189,
  104, 190,
  104, 193,
  104, 194,
  104, 196,
  104, 197,
  104, 200,
  105, 106,
  105, 107,
  105, 108,
  105, 111,
  105, 113,
  105, 121,
  105, 125,
  105, 126,
  105, 128,
  105, 129,
  105, 130,
  105, 133,
  105, 135,
  105, 136,
  105, 139,
  105, 140,
  105, 141,
  105, 142,
  105, 143,
  105, 144,
  105, 146,
  105, 147,
  105, 148,
  105, 149,
  105, 150,
  105, 152,
  105, 153,
  105, 154,
  105, 156,
  105, 157,
  105, 160,
  105, 162,
  105, 163,
  105, 164,
  105, 165,
  105, 169,
  105, 170,
  105, 171,
  105, 172,
  105, 173,
  105, 174,
  105, 176,
  105, 178,
  105, 180,
  105, 181,
  105, 183,
  105, 185,
  105, 186,
  105, 188,
  105, 189,
  105, 190,
  105, 192,
  105, 194,
  105, 195,
  105, 196,
  105, 197,
  105, 198,
  106, 108,
  106, 109,
  106, 110,
  106, 112,
  106, 113,
  106, 117,
  106, 121,
  106, 122,
  106, 128,
  106, 129,
  106, 130,
  106, 131,
  106, 133,
  106, 134,
  106, 138,
  106, 139,
  106, 140,
  106, 141,
  106, 143,
  106, 144,
  106, 146,
  106, 148,
  106, 149,
  106, 150,
  106, 151,
  106, 153,
  106, 154,
  106, 159,
  106, 160,
  106, 161,
  106, 162,
  106, 165,
  106, 166,
  106, 167,
  106, 169,
  106, 170,
  106, 171,
  106, 173,
  106, 174,
  106, 176,
  106, 178,
  106, 179,
  106, 181,
  106, 182,
  106, 184,
  106, 185,
  106, 186,
  106, 187,
  106, 188,
  106, 189,
  106, 190,
  106, 192,
  106, 193,
  106, 195,
  106, 197,
  106, 199,
  107, 113,
  107, 114,
  107, 115,
  107, 116,
  107, 118,
  107, 119,
  107, 120,
  107, 121,
  107, 125,
  107, 127,
  107, 128,
  107, 129,
  107, 130,
  107, 131,
  107, 133,
  107, 134,
  107, 139,
  107, 144,
  107, 145,
  107, 146,
  107, 147,
  107, 150,
  107, 151,
  107, 160,
  107, 161,
  107, 166,
  107, 168,
  107, 169,
  107, 171,
  107, 176,
  107, 177,
  107, 178,
  107, 181,
  107, 182,
  107, 183,
  107, 185,
  107, 186,
  107, 188,
  107, 189,
  107, 191,
  107, 192,
  107, 196,
  107, 197,
  108, 109,
  108, 110,
  108, 111,
  108, 113,
  108, 114,
  108, 115,
  108, 116,
  108, 118,
  108, 120,
  108, 122,
  108, 124,
  108, 125,
  108, 126,
  108, 127,
  108, 128,
  108, 129,
  108, 130,
  108, 133,
  108, 135,
  108, 136,
  108, 138,
  108, 140,
  108, 142,
  108, 146,
  108, 152,
  108, 154,
  108, 155,
  108, 159,
  108, 160,
  108, 161,
  108, 162,
  108, 163,
  108, 164,
  108, 165,
  108, 170,
  108, 175,
  108, 178,
  108, 180,
  108, 181,
  108, 183,
  108, 185,
  108, 186,
  108, 189,
  108, 190,
  108, 193,
  108, 197,
  108, 200,
  109, 112,
  109, 114,
  109, 115,
  109, 116,
  109, 118,
  109, 119,
  109, 122,
  109, 124,
  109, 125,
  109, 127,
  109, 128,
  109, 129,
  109, 130,
  109, 131,
  109, 135,
  109, 136,
  109, 138,
  109, 140,
  109, 143,
  109, 144,
  109, 145,
  109, 147,
  109, 148,
  109, 153,
  109, 154,
  109, 155,
  109, 158,
  109, 161,
  109, 166,
  109, 168,
  109, 169,
  109, 170,
  109, 172,
  109, 174,
  109, 176,
  109, 177,
  109, 185,
  109, 186,
  109, 187,
  109, 191,
  109, 193,
  109, 198,
  109, 199,
  110, 112,
  110, 114,
  110, 115,
  110, 118,
  110, 121,
  110, 124,
  110, 126,
  110, 134,
  110, 137,
  110, 140,
  110, 141,
  110, 145,
  110, 147,
  110, 148,
  110, 150,
  110, 155,
  110, 156,
  110, 157,
  110, 160,
  110, 161,
  110, 164,
  110, 165,
  110, 166,
  110, 167,
  110, 168,
  110, 171,
  110, 174,
  110, 178,
  110, 179,
  110, 182,
  110, 183,
  110, 184,
  110, 186,
  110, 187,
  110, 189,
  110, 191,
  110, 192,
  110, 195,
  110, 197,
  111, 113,
  111, 114,
  111, 117,
  111, 118,
  111, 121,
  111, 126,
  111, 127,
  111, 128,
  111, 135,
  111, 136,
  111, 137,
  111, 140,
  111, 141,
  111, 142,
  111, 143,
  111, 146,
  111, 147,
  111, 148,
  111, 149,
  111, 151,
  111, 153,
  111, 154,
  111, 155,
  111, 157,
  111, 158,
  111, 165,
  111, 166,
  111, 168,
  111, 169,
  111, 172,
  111, 173,
  111, 174,
  111, 176,
  111, 178,
  111, 179,
  111, 180,
  111, 181,
  111, 183,
  111, 185,
  111, 186,
  111, 187,
  111, 190,
  111, 192,
  111, 193,
  111, 194,
  111, 195,
  111, 197,
  111, 200,
  112, 113,
  112, 114,
  112, 116,
  112, 118,
  112, 119,
  112, 121,
  112, 123,
  112, 125,
  112, 130,
  112, 131,
  112, 133,
  112, 134,
  112, 135,
  112, 140,
  112, 143,
  112, 144,
  112, 146,
  112, 147,
  112, 150,
  112, 151,
  112, 154,
  112, 156,
  112, 157,
  112, 158,
  112, 159,
  112, 160,
  112, 161,
  112, 168,
  112, 169,
  112, 171,
  112, 172,
  112, 173,
  112, 174,
  112, 175,
  112, 176,
  112, 178,
  112, 179,
  112, 180,
  112, 184,
  112, 186,
  112, 187,
  112, 189,
  112, 191,
  112, 192,
  112, 193,
  112, 195,
  112, 196,
  112, 198,
  112, 199,
  112, 200,
  113, 114,
  113, 115,
  113, 116,
  113, 118,
  113, 119,
  113, 121,
  113, 122,
  113, 123,
  113, 124,
  113, 126,
  113, 127,
  113, 128,
  113, 133,
  113, 135,
  113, 137,
  113, 138,
  113, 139,
  113, 141,
  113, 142,
  113, 143,
  113, 147,
  113, 148,
  113, 150,
  113, 153,
  113, 156,
  113, 158,
  113, 159,
  113, 163,
  113, 165,
  113, 166,
  113, 170,
  113, 172,
  113, 173,
  113, 181,
  113, 185,
  113, 187,
  113, 188,
  113, 189,
  113, 194,
  113, 195,
  113, 196,
  114, 115,
  114, 116,
  114, 117,
  114, 120,
  114, 121,
  114, 123,
  114, 124,
  114, 129,
  114, 130,
  114, 131,
  114, 132,
  114, 133,
  114, 134,
  114, 135,
  114, 137,
  114, 139,
  114, 140,
  114, 142,
  114, 143,
  114, 145,
  114, 147,
  114, 148,
  114, 149,
  114, 150,
  114, 153,
  114, 154,
  114, 157,
  114, 158,
  114, 159,
  114, 161,
  114, 164,
  114, 169,
  114, 170,
  114, 171,
  114, 172,
  114, 178,
  114, 179,
  114, 180,
  114, 181,
  114, 182,
  114, 183,
  114, 184,
  114, 188,
  114, 190,
  114, 192,
  114, 193,
  114, 194,
  114, 198,
  114, 199,
  115, 116,
  115, 117,
  115, 118,
  115, 119,
  115, 121,
  115, 122,
  115, 125,
  115, 127,
  115, 129,
  115, 131,
  115, 135,
  115, 137,
  115, 141,
  115, 142,
  115, 143,
  115, 144,
  115, 146,
  115, 148,
  115, 149,
  115, 152,
  115, 155,
  115, 156,
  115, 157,
  115, 158,
  115, 161,
  115, 162,
  115, 165,
  115, 169,
  115, 172,
  115, 174,
  115, 176,
  115, 178,
  115, 179,
  115, 181,
  115, 185,
  115, 187,
  115, 189,
  115, 190,
  115, 191,
  115, 193,
  115, 194,
  115, 195,
  115, 197,
  115, 199,
  116, 119,
  116, 121,
  116, 123,
  116, 127,
  116, 129,
  116, 134,
  116, 137,
  116, 139,
  116, 141,
  116, 143,
  116, 145,
  116, 146,
  116, 147,
  116, 150,
  116, 155,
  116, 157,
  116, 161,
  116, 162,
  116, 165,
  116, 167,
  116, 170,
  116, 175,
  116, 176,
  116, 177,
  116, 181,
  116, 183,
  116, 186,
  116, 188,
  116, 190,
  116, 192,
  116, 195,
  117, 119,
  117, 122,
  117, 123,
  117, 129,
  117, 130,
  117, 133,
  117, 136,
  117, 137,
  117, 138,
  117, 139,
  117, 142,
  117, 143,
  117, 144,
  117, 145,
  117, 147,
  117, 149,
  117, 150,
  117, 152,
  117, 153,
  117, 155,
  117, 156,
  117, 157,
  117, 158,
  117, 160,
  117, 161,
  117, 165,
  117, 167,
  117, 168,
  117, 170,
  117, 173,
  117, 174,
  117, 178,
  117, 181,
  117, 182,
  117, 183,
  117, 184,
  117, 185,
  117, 187,
  117, 192,
  117, 193,
  117, 194,
  117, 195,
  117, 198,
  117, 199,
  118, 120,
  118, 121,
  118, 123,
  118, 127,
  118, 130,
  118, 132,
  118, 133,
  118, 134,
  118, 135,
  118, 136,
  118, 139,
  118, 141,
  118, 143,
  118, 145,
  118, 146,
  118, 152,
  118, 154,
  118, 155,
  118, 157,
  118, 158,
  118, 160,
  118, 162,
  118, 163,
  118, 164,
  118, 165,
  118, 167,
  118, 168,
  118, 171,
  118, 172,
  118, 174,
  118, 176,
  118, 177,
  118, 180,
  118, 181,
  118, 182,
  118, 184,
  118, 185,
  118, 186,
  118, 187,
  118, 188,
  118, 192,
  118, 193,
  118, 194,
  118, 196,
  118, 197,
  119, 120,
  119, 124,
  119, 125,
  119, 126,
  119, 129,
  119, 130,
  119, 133,
  119, 135,
  119, 136,
  119, 140,
  119, 143,
  119, 144,
  119, 147,
  119, 151,
  119, 153,
  119, 154,
  119, 155,
  119, 159,
  119, 160,
  119, 162,
  119, 165,
  119, 168,
  119, 172,
  119, 173,
  119, 174,
  119, 176,
  119, 178,
  119, 180,
  119, 182,
  119, 184,
  119, 190,
  119, 191,
  119, 195,
  119, 196,
  119, 198,
  119, 199,
  120, 122,
  120, 125,
  120, 126,
  120, 128,
  120, 129,
  120, 136,
  120, 138,
  120, 141,
  120, 145,
  120, 146,
  120, 147,
  120, 149,
  120, 150,
  120, 151,
  120, 152,
  120, 153,
  120, 154,
  120, 155,
  120, 157,
  120, 164,
  120, 165,
  120, 166,
  120, 171,
  120, 172,
  120, 174,
  120, 177,
  120, 182,
  120, 183,
  120, 186,
  120, 187,
  120, 188,
  120, 190,
  120, 196,
  120, 197,
  120, 198,
  120, 200,
  121, 122,
  121, 123,
  121, 129,
  121, 130,
  121, 131,
  121, 134,
  121, 135,
  121, 136,
  121, 139,
  121, 142,
  121, 143,
  121, 148,
  121, 149,
  121, 151,
  121, 152,
  121, 153,
  121, 155,
  121, 156,
  121, 160,
  121, 162,
  121, 164,
  121, 166,
  121, 167,
  121, 169,
  121, 171,
  121, 173,
  121, 178,
  121, 182,
  121, 183,
  121, 184,
  121, 189,
  121, 190,
  121, 191,
  121, 194,
  121, 199,
  121, 200,
  122, 125,
  122, 126,
  122, 130,
  122, 133,
  122, 135,
  122, 139,
  122, 140,
  122, 141,
  122, 143,
  122, 145,
  122, 146,
  122, 147,
  122, 148,
  122, 151,
  122, 153,
  122, 156,
  122, 159,
  122, 160,
  122, 162,
  122, 166,
  122, 168,
  122, 170,
  122, 171,
  122, 172,
  122, 173,
  122, 174,
  122, 175,
  122, 176,
  122, 177,
  122, 180,
  122, 182,
  122, 184,
  122, 185,
  122, 186,
  122, 187,
  122, 189,
  122, 192,
  122, 195,
  122, 196,
  122, 197,
  122, 199,
  123, 125,
  123, 126,
  123, 127,
  123, 128,
  123, 130,
  123, 131,
  123, 143,
  123, 144,
  123, 146,
  123, 147,
  123, 149,
  123, 151,
  123, 152,
  123, 153,
  123, 154,
  123, 155,
  123, 156,
  123, 158,
  123, 162,
  123, 163,
  123, 164,
  123, 165,
  123, 166,
  123, 169,
  123, 171,
  123, 172,
  123, 173,
  123, 174,
  123, 175,
  123, 176,
  123, 177,
  123, 179,
  123, 180,
  123, 181,
  123, 187,
  123, 196,
  123, 200,
  124, 127,
  124, 133,
  124, 134,
  124, 136,
  124, 137,
  124, 139,
  124, 140,
  124, 144,
  124, 145,
  124, 146,
  124, 150,
  124, 154,
  124, 155,
  124, 157,
  124, 159,
  124, 161,
  124, 164,
  124, 166,
  124, 167,
  124, 168,
  124, 170,
  124, 174,
  124, 175,
  124, 178,
  124, 183,
  124, 184,
  124, 185,
  124, 188,
  124, 189,
  124, 190,
  124, 192,
  124, 194,
  124, 196,
  124, 197,
  124, 198,
  124, 200,
  125, 126,
  125, 128,
  125, 132,
  125, 133,
  125, 134,
  125, 135,
  125, 137,
  125, 142,
  125, 144,
  125, 147,
  125, 148,
  125, 151,
  125, 152,
  125, 153,
  125, 155,
  125, 156,
  125, 160,
  125, 161,
  125, 164,
  125, 165,
  125, 167,
  125, 172,
  125, 174,
  125, 175,
  125, 177,
  125, 178,
  125, 182,
  125, 184,
  125, 185,
  125, 186,
  125, 190,
  125, 192,
  125, 194,
  125, 197,
  126, 127,
  126, 132,
  126, 133,
  126, 135,
  126, 136,
  126, 139,
  126, 140,
  126, 141,
  126, 145,
  126, 150,
  126, 152,
  126, 153,
  126, 155,
  126, 158,
  126, 159,
  126, 163,
  126, 166,
  126, 167,
  126, 170,
  126, 172,
  126, 173,
  126, 174,
  126, 180,
  126, 181,
  126, 183,
  126, 184,
  126, 186,
  126, 187,
  126, 188,
  126, 189,
  126, 190,
  126, 191,
  126, 193,
  126, 194,
  127, 128,
  127, 130,
  127, 136,
  127, 137,
  127, 140,
  127, 141,
  127, 145,
  127, 147,
  127, 151,
  127, 152,
  127, 155,
  127, 159,
  127, 160,
  127, 164,
  127, 165,
  127, 171,
  127, 174,
  127, 179,
  127, 184,
  127, 185,
  127, 187,
  127, 188,
  127, 189,
  127, 190,
  127, 191,
  127, 194,
  127, 195,
  127, 196,
  127, 197,
  127, 199,
  127, 200,
  128, 132,
  128, 134,
  128, 137,
  128, 138,
  128, 141,
  128, 145,
  128, 146,
  128, 149,
  128, 152,
  128, 154,
  128, 157,
  128, 159,
  128, 162,
  128, 163,
  128, 164,
  128, 167,
  128, 168,
  128, 172,
  128, 175,
  128, 178,
  128, 180,
  128, 181,
  128, 183,
  128, 184,
  128, 185,
  128, 186,
  128, 188,
  128, 190,
  128, 192,
  128, 194,
  128, 195,
  128, 197,
  128, 198,
  128, 200,
  129, 130,
  129, 132,
  129, 134,
  129, 138,
  129, 142,
  129, 144,
  129, 145,
  129, 146,
  129, 148,
  129, 149,
  129, 152,
  129, 153,
  129, 154,
  129, 156,
  129, 158,
  129, 161,
  129, 162,
  129, 163,
  129, 164,
  129, 168,
  129, 170,
  129, 171,
  129, 172,
  129, 174,
  129, 175,
  129, 177,
  129, 178,
  129, 179,
  129, 180,
  129, 181,
  129, 187,
  129, 192,
  129, 194,
  129, 197,
  129, 198,
  130, 133,
  130, 135,
  130, 136,
  130, 137,
  130, 138,
  130, 142,
  130, 143,
  130, 144,
  130, 147,
  130, 148,
  130, 152,
  130, 153,
  130, 154,
  130, 158,
  130, 166,
  130, 169,
  130, 170,
  130, 172,
  130, 173,
  130, 174,
  130, 175,
  130, 176,
  130, 182,
  130, 183,
  130, 184,
  130, 186,
  130, 187,
  130, 188,
  130, 189,
  130, 190,
  130, 191,
  130, 192,
  130, 193,
  130, 195,
  130, 196,
  130, 197,
  130, 200,
  131, 134,
  131, 136,
  131, 137,
  131, 138,
  131, 141,
  131, 142,
  131, 143,
  131, 144,
  131, 145,
  131, 146,
  131, 149,
  131, 151,
  131, 152,
  131, 157,
  131, 158,
  131, 159,
  131, 160,
  131, 161,
  131, 162,
  131, 164,
  131, 165,
  131, 166,
  131, 168,
  131, 169,
  131, 170,
  131, 171,
  131, 172,
  131, 175,
  131, 176,
  131, 179,
  131, 180,
  131, 181,
  131, 183,
  131, 184,
  131, 185,
  131, 186,
  131, 187,
  131, 188,
  131, 193,
  131, 194,
  131, 195,
  131, 197,
  131, 198,
  131, 199,
  132, 134,
  132, 139,
  132, 141,
  132, 144,
  132, 146,
  132, 147,
  132, 148,
  132, 149,
  132, 151,
  132, 152,
  132, 156,
  132, 157,
  132, 158,
  132, 160,
  132, 161,
  132, 162,
  132, 163,
  132, 166,
  132, 167,
  132, 169,
  132, 177,
  132, 178,
  132, 180,
  132, 181,
  132, 182,
  132, 185,
  132, 189,
  132, 192,
  132, 193,
  132, 196,
  132, 197,
  132, 199,
  132, 200,
  133, 134,
  133, 135,
  133, 136,
  133, 139,
  133, 140,
  133, 143,
  133, 145,
  133, 149,
  133, 150,
  133, 152,
  133, 153,
  133, 155,
  133, 157,
  133, 158,
  133, 159,
  133, 160,
  133, 161,
  133, 163,
  133, 164,
  133, 165,
  133, 168,
  133, 169,
  133, 170,
  133, 171,
  133, 174,
  133, 175,
  133, 176,
  133, 177,
  133, 179,
  133, 180,
  133, 182,
  133, 183,
  133, 184,
  133, 187,
  133, 188,
  133, 189,
  133, 191,
  133, 193,
  133, 196,
  133, 198,
  133, 200,
  134, 136,
  134, 140,
  134, 141,
  134, 142,
  134, 143,
  134, 145,
  134, 147,
  134, 148,
  134, 149,
  134, 150,
  134, 152,
  134, 153,
  134, 155,
  134, 158,
  134, 160,
  134, 162,
  134, 164,
  134, 165,
  134, 166,
  134, 167,
  134, 168,
  134, 169,
  134, 170,
  134, 173,
  134, 176,
  134, 177,
  134, 178,
  134, 181,
  134, 183,
  134, 184,
  134, 186,
  134, 188,
  134, 191,
  134, 193,
  134, 197,
  134, 199,
  134, 200,
  135, 136,
  135, 138,
  135, 140,
  135, 141,
  135, 143,
  135, 145,
  135, 147,
  135, 148,
  135, 149,
  135, 150,
  135, 152,
  135, 157,
  135, 159,
  135, 162,
  135, 166,
  135, 171,
  135, 172,
  135, 173,
  135, 174,
  135, 175,
  135, 176,
  135, 177,
  135, 182,
  135, 183,
  135, 184,
  135, 186,
  135, 190,
  135, 192,
  135, 193,
  135, 194,
  135, 195,
  135, 196,
  135, 200,
  136, 138,
  136, 139,
  136, 141,
  136, 142,
  136, 143,
  136, 144,
  136, 145,
  136, 148,
  136, 149,
  136, 150,
  136, 154,
  136, 155,
  136, 157,
  136, 161,
  136, 167,
  136, 169,
  136, 171,
  136, 177,
  136, 179,
  136, 180,
  136, 181,
  136, 184,
  136, 186,
  136, 188,
  136, 189,
  136, 190,
  136, 191,
  136, 192,
  136, 193,
  136, 195,
  136, 196,
  136, 199,
  136, 200,
  137, 138,
  137, 142,
  137, 146,
  137, 148,
  137, 155,
  137, 156,
  137, 157,
  137, 159,
  137, 160,
  137, 163,
  137, 164,
  137, 165,
  137, 171,
  137, 172,
  137, 173,
  137, 180,
  137, 183,
  137, 184,
  137, 186,
  137, 193,
  137, 194,
  137, 196,
  137, 197,
  137, 198,
  137, 199,
  138, 142,
  138, 145,
  138, 148,
  138, 150,
  138, 151,
  138, 153,
  138, 154,
  138, 155,
  138, 157,
  138, 158,
  138, 163,
  138, 164,
  138, 167,
  138, 169,
  138, 173,
  138, 175,
  138, 180,
  138, 182,
  138, 183,
  138, 186,
  138, 187,
  138, 188,
  138, 189,
  138, 194,
  138, 196,
  138, 197,
  138, 198,
  138, 200,
  139, 141,
  139, 144,
  139, 145,
  139, 148,
  139, 150,
  139, 151,
  139, 153,
  139, 154,
  139, 155,
  139, 156,
  139, 157,
  139, 160,
  139, 162,
  139, 163,
  139, 164,
  139, 165,
  139, 168,
  139, 169,
  139, 170,
  139, 172,
  139, 173,
  139, 177,
  139, 178,
  139, 179,
  139, 180,
  139, 181,
  139, 187,
  139, 189,
  139, 193,
  139, 194,
  139, 195,
  139, 198,
  139, 199,
  139, 200,
  140, 142,
  140, 143,
  140, 145,
  140, 146,
  140, 148,
  140, 149,
  140, 150,
  140, 154,
  140, 156,
  140, 157,
  140, 158,
  140, 160,
  140, 162,
  140, 163,
  140, 164,
  140, 166,
  140, 169,
  140, 170,
  140, 171,
  140, 172,
  140, 178,
  140, 179,
  140, 180,
  140, 181,
  140, 184,
  140, 185,
  140, 186,
  140, 187,
  140, 188,
  140, 189,
  140, 190,
  140, 191,
  140, 192,
  140, 194,
  140, 196,
  140, 197,
  140, 198,
  140, 199,
  140, 200,
  141, 147,
  141, 148,
  141, 152,
  141, 154,
  141, 155,
  141, 157,
  141, 160,
  141, 161,
  141, 164,
  141, 166,
  141, 167,
  141, 173,
  141, 174,
  141, 176,
  141, 179,
  141, 180,
  141, 181,
  141, 182,
  141, 183,
  141, 184,
  141, 185,
  141, 187,
  141, 188,
  141, 190,
  141, 192,
  141, 193,
  141, 195,
  141, 196,
  141, 197,
  141, 198,
  142, 143,
  142, 144,
  142, 145,
  142, 146,
  142, 147,
  142, 148,
  142, 151,
  142, 153,
  142, 154,
  142, 158,
  142, 159,
  142, 163,
  142, 165,
  142, 166,
  142, 167,
  142, 169,
  142, 170,
  142, 172,
  142, 176,
  142, 181,
  142, 183,
  142, 186,
  142, 191,
  142, 192,
  142, 194,
  142, 195,
  142, 196,
  142, 197,
  142, 199,
  143, 146,
  143, 147,
  143, 148,
  143, 150,
  143, 151,
  143, 153,
  143, 155,
  143, 156,
  143, 157,
  143, 162,
  143, 164,
  143, 165,
  143, 166,
  143, 168,
  143, 169,
  143, 176,
  143, 179,
  143, 180,
  143, 182,
  143, 183,
  143, 185,
  143, 186,
  143, 188,
  143, 189,
  143, 190,
  143, 194,
  143, 195,
  143, 198,
  143, 199,
  144, 145,
  144, 146,
  144, 147,
  144, 148,
  144, 149,
  144, 154,
  144, 158,
  144, 159,
  144, 165,
  144, 166,
  144, 169,
  144, 171,
  144, 173,
  144, 174,
  144, 177,
  144, 183,
  144, 184,
  144, 185,
  144, 187,
  144, 188,
  144, 189,
  144, 190,
  144, 192,
  144, 194,
  144, 195,
  144, 196,
  144, 197,
  144, 198,
  144, 200,
  145, 147,
  145, 148,
  145, 150,
  145, 151,
  145, 152,
  145, 154,
  145, 158,
  145, 159,
  145, 163,
  145, 165,
  145, 166,
  145, 168,
  145, 169,
  145, 170,
  145, 174,
  145, 176,
  145, 181,
  145, 182,
  145, 183,
  145, 187,
  145, 189,
  145, 192,
  145, 195,
  145, 196,
  145, 197,
  145, 198,
  146, 149,
  146, 150,
  146, 151,
  146, 155,
  146, 158,
  146, 160,
  146, 161,
  146, 163,
  146, 164,
  146, 168,
  146, 169,
  146, 173,
  146, 176,
  146, 178,
  146, 179,
  146, 180,
  146, 184,
  146, 185,
  146, 187,
  146, 188,
  146, 191,
  146, 192,
  146, 193,
  146, 194,
  146, 195,
  146, 196,
  146, 197,
  146, 199,
  146, 200,
  147, 149,
  147, 151,
  147, 153,
  147, 154,
  147, 155,
  147, 157,
  147, 158,
  147, 159,
  147, 163,
  147, 164,
  147, 165,
  147, 166,
  147, 167,
  147, 169,
  147, 170,
  147, 171,
  147, 176,
  147, 178,
  147, 181,
  147, 182,
  147, 183,
  147, 185,
  147, 191,
  147, 193,
  147, 194,
  147, 196,
  147, 197,
  147, 198,
  147, 200,
  148, 149,
  148, 150,
  148, 151,
  148, 152,
  148, 154,
  148, 157,
  148, 159,
  148, 160,
  148, 161,
  148, 164,
  148, 165,
  148, 166,
  148, 169,
  148, 173,
  148, 176,
  148, 177,
  148, 178,
  148, 179,
  148, 181,
  148, 182,
  148, 183,
  148, 184,
  148, 188,
  148, 191,
  148, 192,
  148, 196,
  148, 198,
  148, 199,
  149, 150,
  149, 151,
  149, 152,
  149, 153,
  149, 156,
  149, 157,
  149, 159,
  149, 162,
  149, 168,
  149, 172,
  149, 173,
  149, 174,
  149, 175,
  149, 181,
  149, 183,
  149, 185,
  149, 189,
  149, 191,
  149, 192,
  149, 193,
  149, 197,
  149, 198,
  149, 200,
  150, 151,
  150, 152,
  150, 155,
  150, 156,
  150, 157,
  150, 158,
  150, 160,
  150, 165,
  150, 166,
  150, 172,
  150, 173,
  150, 175,
  150, 177,
  150, 180,
  150, 181,
  150, 182,
  150, 183,
  150, 184,
  150, 186,
  150, 188,
  150, 195,
  150, 196,
  150, 197,
  150, 198,
  151, 154,
  151, 157,
  151, 159,
  151, 160,
  151, 162,
  151, 163,
  151, 164,
  151, 165,
  151, 168,
  151, 170,
  151, 172,
  151, 173,
  151, 176,
  151, 179,
  151, 180,
  151, 181,
  151, 182,
  151, 183,
  151, 187,
  151, 193,
  151, 194,
  151, 196,
  151, 197,
  151, 199,
  152, 153,
  152, 155,
  152, 157,
  152, 158,
  152, 159,
  152, 161,
  152, 162,
  152, 164,
  152, 168,
  152, 169,
  152, 171,
  152, 174,
  152, 176,
  152, 179,
  152, 180,
  152, 181,
  152, 182,
  152, 188,
  152, 191,
  152, 196,
  152, 197,
  152, 199,
  153, 156,
  153, 157,
  153, 159,
  153, 160,
  153, 161,
  153, 164,
  153, 165,
  153, 166,
  153, 167,
  153, 168,
  153, 170,
  153, 171,
  153, 174,
  153, 175,
  153, 179,
  153, 180,
  153, 184,
  153, 186,
  153, 187,
  153, 188,
  153, 191,
  153, 194,
  153, 195,
  153, 197,
  153, 198,
  153, 200,
  154, 155,
  154, 157,
  154, 159,
  154, 160,
  154, 161,
  154, 162,
  154, 163,
  154, 167,
  154, 169,
  154, 170,
  154, 177,
  154, 178,
  154, 180,
  154, 182,
  154, 183,
  154, 185,
  154, 186,
  154, 188,
  154, 191,
  154, 192,
  154, 193,
  154, 195,
  154, 196,
  154, 197,
  154, 199,
  154, 200,
  155, 156,
  155, 158,
  155, 159,
  155, 165,
  155, 166,
  155, 167,
  155, 168,
  155, 169,
  155, 171,
  155, 180,
  155, 181,
  155, 182,
  155, 183,
  155, 185,
  155, 186,
  155, 187,
  155, 189,
  155, 191,
  155, 192,
  155, 194,
  155, 199,
  155, 200,
  156, 159,
  156, 160,
  156, 161,
  156, 162,
  156, 163,
  156, 164,
  156, 166,
  156, 168,
  156, 169,
  156, 172,
  156, 173,
  156, 175,
  156, 179,
  156, 181,
  156, 185,
  156, 187,
  156, 188,
  156, 189,
  156, 193,
  156, 194,
  156, 195,
  156, 198,
  157, 158,
  157, 161,
  157, 162,
  157, 166,
  157, 167,
  157, 168,
  157, 170,
  157, 171,
  157, 172,
  157, 175,
  157, 177,
  157, 178,
  157, 179,
  157, 180,
  157, 181,
  157, 182,
  157, 183,
  157, 184,
  157, 185,
  157, 187,
  157, 188,
  157, 193,
  157, 194,
  157, 195,
  157, 196,
  157, 197,
  157, 200,
  158, 160,
  158, 161,
  158, 164,
  158, 168,
  158, 170,
  158, 172,
  158, 176,
  158, 179,
  158, 180,
  158, 181,
  158, 188,
  158, 191,
  158, 192,
  158, 193,
  158, 195,
  158, 200,
  159, 162,
  159, 165,
  159, 166,
  159, 167,
  159, 171,
  159, 176,
  159, 180,
  159, 181,
  159, 182,
  159, 187,
  159, 189,
  159, 190,
  159, 193,
  159, 194,
  159, 197,
  159, 200,
  160, 161,
  160, 163,
  160, 164,
  160, 171,
  160, 172,
  160, 174,
  160, 175,
  160, 178,
  160, 180,
  160, 181,
  160, 183,
  160, 184,
  160, 187,
  160, 189,
  160, 192,
  160, 194,
  160, 199,
  161, 163,
  161, 164,
  161, 165,
  161, 166,
  161, 169,
  161, 174,
  161, 177,
  161, 179,
  161, 182,
  161, 183,
  161, 184,
  161, 188,
  161, 189,
  161, 190,
  161, 192,
  161, 193,
  161, 195,
  161, 196,
  161, 200,
  162, 164,
  162, 165,
  162, 166,
  162, 167,
  162, 168,
  162, 170,
  162, 173,
  162, 175,
  162, 177,
  162, 178,
  162, 179,
  162, 180,
  162, 181,
  162, 182,
  162, 183,
  162, 184,
  162, 186,
  162, 187,
  162, 188,
  162, 190,
  162, 195,
  162, 196,
  162, 197,
  162, 198,
  162, 199,
  163, 164,
  163, 165,
  163, 166,
  163, 167,
  163, 169,
  163, 170,
  163, 172,
  163, 173,
  163, 174,
  163, 175,
  163, 176,
  163, 177,
  163, 179,
  163, 180,
  163, 182,
  163, 184,
  163, 185,
  163, 187,
  163, 192,
  163, 193,
  163, 194,
  163, 195,
  163, 196,
  163, 197,
  163, 198,
  163, 200,
  164, 165,
  164, 167,
  164, 171,
  164, 173,
  164, 176,
  164, 177,
  164, 181,
  164, 185,
  164, 189,
  164, 190,
  164, 192,
  164, 194,
  164, 196,
  164, 197,
  164, 198,
  165, 171,
  165, 174,
  165, 175,
  165, 176,
  165, 177,
  165, 178,
  165, 182,
  165, 184,
  165, 187,
  165, 188,
  165, 190,
  165, 191,
  165, 192,
  165, 194,
  165, 195,
  165, 200,
  166, 167,
  166, 172,
  166, 177,
  166, 178,
  166, 182,
  166, 183,
  166, 184,
  166, 186,
  166, 187,
  166, 188,
  166, 189,
  166, 190,
  166, 191,
  166, 192,
  166, 195,
  166, 198,
  167, 168,
  167, 169,
  167, 171,
  167, 172,
  167, 175,
  167, 177,
  167, 180,
  167, 182,
  167, 183,
  167, 185,
  167, 186,
  167, 188,
  167, 191,
  167, 193,
  167, 196,
  167, 197,
  167, 199,
  167, 200,
  168, 169,
  168, 172,
  168, 173,
  168, 174,
  168, 177,
  168, 181,
  168, 182,
  168, 183,
  168, 185,
  168, 186,
  168, 188,
  168, 190,
  168, 191,
  168, 192,
  168, 195,
  168, 199,
  168, 200,
  169, 170,
  169, 172,
  169, 173,
  169, 174,
  169, 175,
  169, 176,
  169, 177,
  169, 180,
  169, 182,
  169, 186,
  169, 187,
  169, 191,
  169, 192,
  169, 194,
  169, 195,
  170, 171,
  170, 175,
  170, 178,
  170, 179,
  170, 180,
  170, 182,
  170, 186,
  170, 190,
  170, 191,
  170, 193,
  170, 194,
  170, 198,
  171, 172,
  171, 177,
  171, 182,
  171, 183,
  171, 185,
  171, 187,
  171, 190,
  171, 191,
  171, 192,
  171, 193,
  171, 195,
  171, 196,
  171, 198,
  171, 199,
  171, 200,
  172, 174,
  172, 176,
  172, 177,
  172, 179,
  172, 182,
  172, 184,
  172, 185,
  172, 186,
  172, 193,
  172, 194,
  172, 195,
  172, 196,
  172, 198,
  172, 199,
  172, 200,
  173, 174,
  173, 175,
  173, 178,
  173, 179,
  173, 180,
  173, 183,
  173, 184,
  173, 185,
  173, 188,
  173, 191,
  173, 192,
  173, 195,
  173, 196,
  173, 197,
  173, 198,
  173, 200,
  174, 175,
  174, 177,
  174, 184,
  174, 186,
  174, 187,
  174, 188,
  174, 190,
  174, 191,
  174, 192,
  174, 197,
  174, 199,
  175, 177,
  175, 178,
  175, 180,
  175, 181,
  175, 187,
  175, 189,
  175, 190,
  175, 192,
  175, 193,
  175, 195,
  175, 196,
  175, 197,
  175, 199,
  175, 200,
  176, 179,
  176, 182,
  176, 185,
  176, 188,
  176, 189,
  176, 190,
  176, 191,
  176, 193,
  176, 196,
  176, 199,
  176, 200,
  177, 181,
  177, 183,
  177, 188,
  177, 189,
  177, 190,
  177, 192,
  177, 193,
  177, 194,
  177, 196,
  177, 198,
  178, 180,
  178, 183,
  178, 184,
  178, 185,
  178, 187,
  178, 188,
  178, 189,
  178, 190,
  178, 191,
  178, 193,
  178, 194,
  178, 199,
  178, 200,
  179, 182,
  179, 183,
  179, 184,
  179, 185,
  179, 187,
  179, 188,
  179, 189,
  179, 195,
  179, 196,
  179, 198,
  180, 183,
  180, 184,
  180, 185,
  180, 186,
  180, 188,
  180, 189,
  180, 199,
  181, 182,
  181, 186,
  181, 188,
  181, 189,
  181, 190,
  181, 192,
  181, 196,
  181, 197,
  181, 198,
  181, 199,
  182, 189,
  182, 191,
  182, 192,
  182, 193,
  182, 195,
  182, 196,
  182, 198,
  182, 199,
  182, 200,
  183, 184,
  183, 185,
  183, 187,
  183, 189,
  183, 191,
  183, 193,
  183, 195,
  183, 196,
  183, 197,
  183, 198,
  183, 199,
  183, 200,
  184, 185,
  184, 190,
  184, 191,
  184, 194,
  184, 200,
  185, 187,
  185, 189,
  185, 190,
  185, 191,
  185, 192,
  185, 194,
  185, 195,
  185, 196,
  185, 197,
  185, 199,
  186, 187,
  186, 192,
  186, 193,
  186, 194,
  186, 197,
  186, 199,
  187, 188,
  187, 190,
  187, 192,
  187, 193,
  187, 195,
  187, 196,
  187, 197,
  187, 198,
  188, 191,
  188, 194,
  188, 195,
  188, 197,
  189, 191,
  189, 192,
  189, 194,
  189, 195,
  189, 196,
  189, 197,
  189, 198,
  189, 199,
  189, 200,
  190, 192,
  190, 193,
  190, 199,
  191, 192,
  191, 194,
  191, 195,
  191, 196,
  191, 199,
  192, 198,
  192, 199,
  193, 194,
  193, 199,
  193, 200,
  195, 196,
  195, 198,
  195, 200,
  196, 197,
  196, 199,
  197, 198,
  197, 200,
  199, 200
]);
