n = 400;
k = 200;
m = 39855;
edges = array2d(1..m, 1..2, [
  1, 2,
  1, 3,
  1, 4,
  1, 5,
  1, 6,
  1, 7,
  1, 10,
  1, 11,
  1, 12,
  1, 13,
  1, 14,
  1, 15,
  1, 16,
  1, 17,
  1, 19,
  1, 20,
  1, 21,
  1, 22,
  1, 23,
  1, 24,
  1, 25,
  1, 26,
  1, 27,
  1, 28,
  1, 31,
  1, 32,
  1, 33,
  1, 34,
  1, 37,
  1, 39,
  1, 41,
  1, 43,
  1, 44,
  1, 45,
  1, 46,
  1, 47,
  1, 48,
  1, 49,
  1, 50,
  1, 51,
  1, 55,
  1, 56,
  1, 59,
  1, 60,
  1, 64,
  1, 65,
  1, 68,
  1, 69,
  1, 73,
  1, 77,
  1, 83,
  1, 85,
  1, 86,
  1, 90,
  1, 94,
  1, 98,
  1, 99,
  1, 103,
  1, 104,
  1, 107,
  1, 108,
  1, 110,
  1, 111,
  1, 114,
  1, 115,
  1, 116,
  1, 117,
  1, 118,
  1, 119,
  1, 128,
  1, 129,
  1, 131,
  1, 132,
  1, 133,
  1, 135,
  1, 139,
  1, 140,
  1, 142,
  1, 144,
  1, 146,
  1, 147,
  1, 149,
  1, 153,
  1, 157,
  1, 158,
  1, 159,
  1, 161,
  1, 162,
  1, 163,
  1, 164,
  1, 165,
  1, 166,
  1, 167,
  1, 171,
  1, 172,
  1, 174,
  1, 175,
  1, 176,
  1, 178,
  1, 181,
  1, 186,
  1, 187,
  1, 188,
  1, 189,
  1, 190,
  1, 191,
  1, 193,
  1, 196,
  1, 204,
  1, 205,
  1, 207,
  1, 209,
  1, 210,
  1, 211,
  1, 213,
  1, 214,
  1, 215,
  1, 216,
  1, 221,
  1, 222,
  1, 224,
  1, 226,
  1, 228,
  1, 230,
  1, 232,
  1, 234,
  1, 235,
  1, 236,
  1, 237,
  1, 238,
  1, 246,
  1, 247,
  1, 252,
  1, 253,
  1, 254,
  1, 255,
  1, 257,
  1, 258,
  1, 264,
  1, 265,
  1, 266,
  1, 268,
  1, 269,
  1, 270,
  1, 271,
  1, 272,
  1, 273,
  1, 274,
  1, 275,
  1, 276,
  1, 277,
  1, 279,
  1, 280,
  1, 290,
  1, 291,
  1, 293,
  1, 294,
  1, 295,
  1, 296,
  1, 297,
  1, 300,
  1, 302,
  1, 303,
  1, 305,
  1, 309,
  1, 312,
  1, 313,
  1, 315,
  1, 319,
  1, 326,
  1, 329,
  1, 330,
  1, 331,
  1, 335,
  1, 336,
  1, 338,
  1, 339,
  1, 340,
  1, 342,
  1, 346,
  1, 348,
  1, 349,
  1, 351,
  1, 352,
  1, 354,
  1, 355,
  1, 356,
  1, 357,
  1, 361,
  1, 362,
  1, 365,
  1, 366,
  1, 369,
  1, 370,
  1, 371,
  1, 374,
  1, 375,
  1, 378,
  1, 381,
  1, 384,
  1, 385,
  1, 386,
  1, 390,
  1, 391,
  1, 394,
  1, 397,
  1, 400,
  2, 5,
  2, 8,
  2, 9,
  2, 11,
  2, 12,
  2, 14,
  2, 15,
  2, 18,
  2, 20,
  2, 21,
  2, 25,
  2, 26,
  2, 27,
  2, 29,
  2, 36,
  2, 37,
  2, 41,
  2, 42,
  2, 46,
  2, 47,
  2, 52,
  2, 53,
  2, 56,
  2, 61,
  2, 67,
  2, 71,
  2, 72,
  2, 74,
  2, 82,
  2, 84,
  2, 86,
  2, 87,
  2, 93,
  2, 94,
  2, 96,
  2, 98,
  2, 100,
  2, 103,
  2, 104,
  2, 105,
  2, 108,
  2, 109,
  2, 112,
  2, 114,
  2, 118,
  2, 122,
  2, 123,
  2, 126,
  2, 132,
  2, 133,
  2, 134,
  2, 138,
  2, 139,
  2, 141,
  2, 142,
  2, 143,
  2, 144,
  2, 145,
  2, 150,
  2, 151,
  2, 155,
  2, 156,
  2, 158,
  2, 159,
  2, 161,
  2, 162,
  2, 166,
  2, 168,
  2, 169,
  2, 170,
  2, 171,
  2, 174,
  2, 175,
  2, 178,
  2, 179,
  2, 180,
  2, 181,
  2, 183,
  2, 186,
  2, 191,
  2, 194,
  2, 196,
  2, 198,
  2, 199,
  2, 200,
  2, 201,
  2, 202,
  2, 203,
  2, 204,
  2, 205,
  2, 206,
  2, 207,
  2, 208,
  2, 210,
  2, 218,
  2, 219,
  2, 220,
  2, 224,
  2, 230,
  2, 231,
  2, 233,
  2, 235,
  2, 236,
  2, 237,
  2, 240,
  2, 241,
  2, 242,
  2, 247,
  2, 249,
  2, 250,
  2, 255,
  2, 256,
  2, 257,
  2, 262,
  2, 267,
  2, 271,
  2, 273,
  2, 277,
  2, 281,
  2, 283,
  2, 284,
  2, 287,
  2, 295,
  2, 299,
  2, 300,
  2, 301,
  2, 302,
  2, 303,
  2, 304,
  2, 305,
  2, 306,
  2, 307,
  2, 309,
  2, 311,
  2, 312,
  2, 315,
  2, 318,
  2, 322,
  2, 323,
  2, 324,
  2, 325,
  2, 327,
  2, 328,
  2, 329,
  2, 332,
  2, 334,
  2, 339,
  2, 340,
  2, 342,
  2, 343,
  2, 346,
  2, 348,
  2, 351,
  2, 352,
  2, 353,
  2, 354,
  2, 356,
  2, 359,
  2, 360,
  2, 363,
  2, 365,
  2, 371,
  2, 373,
  2, 376,
  2, 378,
  2, 380,
  2, 381,
  2, 382,
  2, 383,
  2, 384,
  2, 385,
  2, 391,
  2, 393,
  2, 394,
  2, 395,
  2, 397,
  3, 6,
  3, 11,
  3, 14,
  3, 16,
  3, 17,
  3, 18,
  3, 19,
  3, 20,
  3, 21,
  3, 24,
  3, 26,
  3, 27,
  3, 29,
  3, 31,
  3, 32,
  3, 35,
  3, 37,
  3, 38,
  3, 39,
  3, 41,
  3, 42,
  3, 43,
  3, 44,
  3, 47,
  3, 52,
  3, 53,
  3, 55,
  3, 59,
  3, 61,
  3, 66,
  3, 68,
  3, 71,
  3, 73,
  3, 74,
  3, 76,
  3, 79,
  3, 80,
  3, 81,
  3, 82,
  3, 84,
  3, 87,
  3, 91,
  3, 92,
  3, 93,
  3, 94,
  3, 95,
  3, 96,
  3, 99,
  3, 100,
  3, 101,
  3, 104,
  3, 106,
  3, 107,
  3, 108,
  3, 109,
  3, 110,
  3, 112,
  3, 114,
  3, 115,
  3, 117,
  3, 118,
  3, 119,
  3, 120,
  3, 124,
  3, 125,
  3, 126,
  3, 127,
  3, 130,
  3, 131,
  3, 132,
  3, 133,
  3, 134,
  3, 135,
  3, 136,
  3, 141,
  3, 144,
  3, 151,
  3, 152,
  3, 153,
  3, 155,
  3, 158,
  3, 159,
  3, 165,
  3, 166,
  3, 169,
  3, 173,
  3, 176,
  3, 178,
  3, 179,
  3, 180,
  3, 181,
  3, 182,
  3, 188,
  3, 189,
  3, 191,
  3, 192,
  3, 193,
  3, 195,
  3, 197,
  3, 198,
  3, 200,
  3, 201,
  3, 203,
  3, 204,
  3, 205,
  3, 206,
  3, 207,
  3, 208,
  3, 213,
  3, 214,
  3, 216,
  3, 218,
  3, 221,
  3, 222,
  3, 224,
  3, 225,
  3, 226,
  3, 228,
  3, 230,
  3, 232,
  3, 235,
  3, 236,
  3, 238,
  3, 241,
  3, 242,
  3, 243,
  3, 244,
  3, 245,
  3, 247,
  3, 249,
  3, 251,
  3, 256,
  3, 258,
  3, 259,
  3, 261,
  3, 263,
  3, 265,
  3, 266,
  3, 268,
  3, 271,
  3, 275,
  3, 277,
  3, 280,
  3, 282,
  3, 283,
  3, 284,
  3, 286,
  3, 287,
  3, 289,
  3, 290,
  3, 291,
  3, 292,
  3, 293,
  3, 294,
  3, 296,
  3, 297,
  3, 298,
  3, 300,
  3, 303,
  3, 304,
  3, 305,
  3, 307,
  3, 308,
  3, 309,
  3, 310,
  3, 311,
  3, 313,
  3, 317,
  3, 318,
  3, 319,
  3, 320,
  3, 321,
  3, 322,
  3, 324,
  3, 327,
  3, 328,
  3, 329,
  3, 331,
  3, 332,
  3, 334,
  3, 336,
  3, 341,
  3, 344,
  3, 347,
  3, 348,
  3, 352,
  3, 354,
  3, 356,
  3, 357,
  3, 360,
  3, 362,
  3, 363,
  3, 364,
  3, 368,
  3, 369,
  3, 371,
  3, 372,
  3, 374,
  3, 376,
  3, 378,
  3, 380,
  3, 381,
  3, 387,
  3, 388,
  3, 390,
  3, 391,
  3, 392,
  3, 393,
  3, 394,
  3, 396,
  3, 397,
  3, 398,
  3, 400,
  4, 10,
  4, 11,
  4, 12,
  4, 18,
  4, 19,
  4, 20,
  4, 25,
  4, 27,
  4, 29,
  4, 30,
  4, 31,
  4, 32,
  4, 34,
  4, 38,
  4, 39,
  4, 42,
  4, 45,
  4, 50,
  4, 51,
  4, 53,
  4, 59,
  4, 61,
  4, 62,
  4, 64,
  4, 65,
  4, 67,
  4, 70,
  4, 73,
  4, 74,
  4, 75,
  4, 77,
  4, 78,
  4, 84,
  4, 85,
  4, 87,
  4, 89,
  4, 94,
  4, 98,
  4, 99,
  4, 100,
  4, 103,
  4, 105,
  4, 106,
  4, 108,
  4, 109,
  4, 111,
  4, 112,
  4, 113,
  4, 116,
  4, 117,
  4, 119,
  4, 122,
  4, 124,
  4, 126,
  4, 127,
  4, 129,
  4, 130,
  4, 131,
  4, 132,
  4, 134,
  4, 135,
  4, 139,
  4, 140,
  4, 144,
  4, 145,
  4, 147,
  4, 148,
  4, 149,
  4, 150,
  4, 151,
  4, 152,
  4, 154,
  4, 155,
  4, 156,
  4, 159,
  4, 163,
  4, 164,
  4, 165,
  4, 166,
  4, 167,
  4, 168,
  4, 176,
  4, 177,
  4, 178,
  4, 179,
  4, 180,
  4, 181,
  4, 182,
  4, 185,
  4, 186,
  4, 187,
  4, 189,
  4, 191,
  4, 193,
  4, 195,
  4, 196,
  4, 197,
  4, 198,
  4, 199,
  4, 200,
  4, 203,
  4, 205,
  4, 206,
  4, 208,
  4, 209,
  4, 210,
  4, 212,
  4, 213,
  4, 215,
  4, 217,
  4, 218,
  4, 220,
  4, 222,
  4, 227,
  4, 230,
  4, 232,
  4, 234,
  4, 236,
  4, 237,
  4, 238,
  4, 239,
  4, 241,
  4, 244,
  4, 248,
  4, 249,
  4, 252,
  4, 254,
  4, 255,
  4, 256,
  4, 257,
  4, 259,
  4, 261,
  4, 265,
  4, 266,
  4, 267,
  4, 270,
  4, 273,
  4, 275,
  4, 281,
  4, 282,
  4, 284,
  4, 294,
  4, 298,
  4, 302,
  4, 303,
  4, 304,
  4, 305,
  4, 307,
  4, 308,
  4, 309,
  4, 315,
  4, 316,
  4, 318,
  4, 322,
  4, 323,
  4, 325,
  4, 331,
  4, 333,
  4, 334,
  4, 336,
  4, 337,
  4, 338,
  4, 340,
  4, 343,
  4, 344,
  4, 345,
  4, 346,
  4, 347,
  4, 349,
  4, 350,
  4, 351,
  4, 352,
  4, 357,
  4, 359,
  4, 360,
  4, 361,
  4, 370,
  4, 371,
  4, 372,
  4, 373,
  4, 374,
  4, 378,
  4, 380,
  4, 384,
  4, 385,
  4, 386,
  4, 387,
  4, 391,
  4, 393,
  4, 397,
  4, 398,
  4, 399,
  5, 8,
  5, 11,
  5, 13,
  5, 14,
  5, 15,
  5, 16,
  5, 17,
  5, 21,
  5, 22,
  5, 23,
  5, 25,
  5, 26,
  5, 29,
  5, 31,
  5, 32,
  5, 34,
  5, 35,
  5, 36,
  5, 37,
  5, 39,
  5, 40,
  5, 44,
  5, 45,
  5, 46,
  5, 49,
  5, 50,
  5, 52,
  5, 57,
  5, 58,
  5, 59,
  5, 62,
  5, 64,
  5, 66,
  5, 67,
  5, 69,
  5, 70,
  5, 72,
  5, 73,
  5, 74,
  5, 75,
  5, 76,
  5, 79,
  5, 83,
  5, 87,
  5, 88,
  5, 89,
  5, 90,
  5, 91,
  5, 92,
  5, 93,
  5, 95,
  5, 96,
  5, 98,
  5, 99,
  5, 100,
  5, 101,
  5, 103,
  5, 105,
  5, 106,
  5, 107,
  5, 108,
  5, 110,
  5, 111,
  5, 112,
  5, 116,
  5, 121,
  5, 122,
  5, 123,
  5, 125,
  5, 128,
  5, 129,
  5, 132,
  5, 136,
  5, 137,
  5, 138,
  5, 142,
  5, 144,
  5, 146,
  5, 149,
  5, 151,
  5, 153,
  5, 154,
  5, 156,
  5, 157,
  5, 159,
  5, 160,
  5, 161,
  5, 163,
  5, 165,
  5, 166,
  5, 170,
  5, 172,
  5, 173,
  5, 176,
  5, 177,
  5, 183,
  5, 184,
  5, 185,
  5, 186,
  5, 188,
  5, 190,
  5, 192,
  5, 193,
  5, 196,
  5, 198,
  5, 199,
  5, 200,
  5, 202,
  5, 203,
  5, 207,
  5, 209,
  5, 210,
  5, 211,
  5, 212,
  5, 216,
  5, 220,
  5, 221,
  5, 224,
  5, 227,
  5, 230,
  5, 234,
  5, 235,
  5, 236,
  5, 237,
  5, 239,
  5, 240,
  5, 241,
  5, 243,
  5, 244,
  5, 247,
  5, 248,
  5, 250,
  5, 252,
  5, 253,
  5, 256,
  5, 257,
  5, 258,
  5, 261,
  5, 263,
  5, 264,
  5, 265,
  5, 268,
  5, 272,
  5, 274,
  5, 280,
  5, 282,
  5, 283,
  5, 286,
  5, 288,
  5, 289,
  5, 291,
  5, 294,
  5, 295,
  5, 296,
  5, 301,
  5, 302,
  5, 303,
  5, 304,
  5, 305,
  5, 306,
  5, 309,
  5, 310,
  5, 311,
  5, 314,
  5, 315,
  5, 316,
  5, 317,
  5, 319,
  5, 320,
  5, 323,
  5, 325,
  5, 326,
  5, 327,
  5, 328,
  5, 329,
  5, 330,
  5, 338,
  5, 340,
  5, 341,
  5, 343,
  5, 345,
  5, 347,
  5, 348,
  5, 350,
  5, 351,
  5, 352,
  5, 353,
  5, 355,
  5, 356,
  5, 357,
  5, 359,
  5, 360,
  5, 362,
  5, 363,
  5, 365,
  5, 368,
  5, 369,
  5, 371,
  5, 374,
  5, 376,
  5, 377,
  5, 386,
  5, 387,
  5, 389,
  5, 390,
  5, 392,
  5, 394,
  5, 398,
  5, 399,
  5, 400,
  6, 7,
  6, 8,
  6, 9,
  6, 10,
  6, 16,
  6, 17,
  6, 20,
  6, 21,
  6, 23,
  6, 25,
  6, 28,
  6, 29,
  6, 31,
  6, 33,
  6, 35,
  6, 36,
  6, 37,
  6, 38,
  6, 39,
  6, 40,
  6, 41,
  6, 47,
  6, 49,
  6, 50,
  6, 53,
  6, 55,
  6, 58,
  6, 60,
  6, 62,
  6, 63,
  6, 64,
  6, 67,
  6, 70,
  6, 74,
  6, 75,
  6, 76,
  6, 77,
  6, 78,
  6, 79,
  6, 81,
  6, 82,
  6, 85,
  6, 87,
  6, 89,
  6, 90,
  6, 92,
  6, 96,
  6, 97,
  6, 98,
  6, 99,
  6, 101,
  6, 103,
  6, 104,
  6, 106,
  6, 107,
  6, 108,
  6, 111,
  6, 113,
  6, 117,
  6, 118,
  6, 119,
  6, 120,
  6, 121,
  6, 123,
  6, 124,
  6, 127,
  6, 128,
  6, 129,
  6, 133,
  6, 137,
  6, 140,
  6, 142,
  6, 147,
  6, 148,
  6, 151,
  6, 154,
  6, 155,
  6, 157,
  6, 158,
  6, 160,
  6, 161,
  6, 162,
  6, 163,
  6, 165,
  6, 170,
  6, 171,
  6, 173,
  6, 174,
  6, 175,
  6, 177,
  6, 179,
  6, 181,
  6, 183,
  6, 184,
  6, 186,
  6, 187,
  6, 190,
  6, 191,
  6, 192,
  6, 193,
  6, 194,
  6, 196,
  6, 202,
  6, 210,
  6, 212,
  6, 213,
  6, 216,
  6, 220,
  6, 221,
  6, 222,
  6, 224,
  6, 225,
  6, 226,
  6, 228,
  6, 230,
  6, 235,
  6, 237,
  6, 238,
  6, 240,
  6, 242,
  6, 243,
  6, 245,
  6, 246,
  6, 249,
  6, 250,
  6, 251,
  6, 252,
  6, 255,
  6, 256,
  6, 257,
  6, 259,
  6, 260,
  6, 261,
  6, 263,
  6, 266,
  6, 268,
  6, 269,
  6, 270,
  6, 272,
  6, 277,
  6, 278,
  6, 281,
  6, 283,
  6, 284,
  6, 285,
  6, 287,
  6, 292,
  6, 293,
  6, 298,
  6, 302,
  6, 304,
  6, 309,
  6, 311,
  6, 312,
  6, 313,
  6, 316,
  6, 317,
  6, 321,
  6, 327,
  6, 328,
  6, 329,
  6, 330,
  6, 331,
  6, 333,
  6, 334,
  6, 335,
  6, 337,
  6, 338,
  6, 339,
  6, 340,
  6, 341,
  6, 343,
  6, 346,
  6, 347,
  6, 350,
  6, 353,
  6, 358,
  6, 359,
  6, 363,
  6, 365,
  6, 370,
  6, 371,
  6, 372,
  6, 374,
  6, 379,
  6, 380,
  6, 381,
  6, 383,
  6, 384,
  6, 386,
  6, 390,
  6, 391,
  6, 394,
  6, 395,
  6, 399,
  6, 400,
  7, 9,
  7, 13,
  7, 14,
  7, 17,
  7, 18,
  7, 19,
  7, 23,
  7, 25,
  7, 27,
  7, 28,
  7, 29,
  7, 30,
  7, 33,
  7, 34,
  7, 35,
  7, 38,
  7, 41,
  7, 42,
  7, 44,
  7, 47,
  7, 52,
  7, 53,
  7, 54,
  7, 56,
  7, 57,
  7, 58,
  7, 60,
  7, 61,
  7, 67,
  7, 68,
  7, 69,
  7, 71,
  7, 72,
  7, 74,
  7, 75,
  7, 77,
  7, 78,
  7, 79,
  7, 85,
  7, 87,
  7, 88,
  7, 89,
  7, 92,
  7, 94,
  7, 95,
  7, 96,
  7, 101,
  7, 102,
  7, 104,
  7, 105,
  7, 106,
  7, 107,
  7, 109,
  7, 110,
  7, 113,
  7, 116,
  7, 117,
  7, 118,
  7, 119,
  7, 126,
  7, 127,
  7, 128,
  7, 129,
  7, 132,
  7, 133,
  7, 134,
  7, 136,
  7, 139,
  7, 143,
  7, 146,
  7, 147,
  7, 149,
  7, 150,
  7, 151,
  7, 152,
  7, 155,
  7, 156,
  7, 157,
  7, 158,
  7, 159,
  7, 161,
  7, 162,
  7, 166,
  7, 167,
  7, 181,
  7, 182,
  7, 185,
  7, 186,
  7, 191,
  7, 192,
  7, 193,
  7, 194,
  7, 196,
  7, 199,
  7, 204,
  7, 206,
  7, 208,
  7, 210,
  7, 211,
  7, 214,
  7, 215,
  7, 218,
  7, 219,
  7, 223,
  7, 225,
  7, 226,
  7, 227,
  7, 228,
  7, 232,
  7, 239,
  7, 244,
  7, 245,
  7, 246,
  7, 247,
  7, 248,
  7, 250,
  7, 251,
  7, 252,
  7, 255,
  7, 256,
  7, 257,
  7, 258,
  7, 260,
  7, 262,
  7, 264,
  7, 272,
  7, 274,
  7, 284,
  7, 285,
  7, 288,
  7, 291,
  7, 293,
  7, 294,
  7, 295,
  7, 296,
  7, 298,
  7, 299,
  7, 300,
  7, 302,
  7, 303,
  7, 304,
  7, 305,
  7, 307,
  7, 308,
  7, 309,
  7, 310,
  7, 312,
  7, 319,
  7, 325,
  7, 326,
  7, 329,
  7, 332,
  7, 333,
  7, 335,
  7, 336,
  7, 337,
  7, 338,
  7, 339,
  7, 341,
  7, 342,
  7, 343,
  7, 347,
  7, 351,
  7, 352,
  7, 358,
  7, 359,
  7, 362,
  7, 363,
  7, 364,
  7, 365,
  7, 366,
  7, 367,
  7, 368,
  7, 372,
  7, 380,
  7, 381,
  7, 382,
  7, 386,
  7, 388,
  7, 389,
  7, 390,
  7, 392,
  7, 393,
  7, 395,
  7, 397,
  7, 400,
  8, 9,
  8, 11,
  8, 12,
  8, 13,
  8, 16,
  8, 19,
  8, 21,
  8, 26,
  8, 28,
  8, 30,
  8, 32,
  8, 36,
  8, 37,
  8, 38,
  8, 39,
  8, 40,
  8, 41,
  8, 42,
  8, 44,
  8, 45,
  8, 46,
  8, 47,
  8, 49,
  8, 50,
  8, 53,
  8, 59,
  8, 61,
  8, 62,
  8, 64,
  8, 69,
  8, 71,
  8, 72,
  8, 73,
  8, 74,
  8, 75,
  8, 77,
  8, 79,
  8, 80,
  8, 81,
  8, 84,
  8, 89,
  8, 90,
  8, 91,
  8, 92,
  8, 93,
  8, 96,
  8, 97,
  8, 99,
  8, 101,
  8, 102,
  8, 104,
  8, 106,
  8, 108,
  8, 110,
  8, 113,
  8, 115,
  8, 119,
  8, 120,
  8, 123,
  8, 127,
  8, 129,
  8, 132,
  8, 136,
  8, 140,
  8, 143,
  8, 146,
  8, 147,
  8, 148,
  8, 149,
  8, 152,
  8, 153,
  8, 155,
  8, 156,
  8, 159,
  8, 160,
  8, 161,
  8, 162,
  8, 164,
  8, 165,
  8, 174,
  8, 178,
  8, 180,
  8, 183,
  8, 184,
  8, 186,
  8, 188,
  8, 193,
  8, 195,
  8, 196,
  8, 197,
  8, 198,
  8, 200,
  8, 201,
  8, 203,
  8, 206,
  8, 208,
  8, 209,
  8, 210,
  8, 211,
  8, 213,
  8, 214,
  8, 215,
  8, 216,
  8, 218,
  8, 219,
  8, 222,
  8, 225,
  8, 226,
  8, 227,
  8, 228,
  8, 230,
  8, 231,
  8, 235,
  8, 236,
  8, 237,
  8, 238,
  8, 240,
  8, 241,
  8, 242,
  8, 243,
  8, 246,
  8, 247,
  8, 248,
  8, 252,
  8, 253,
  8, 254,
  8, 258,
  8, 262,
  8, 263,
  8, 264,
  8, 266,
  8, 267,
  8, 268,
  8, 269,
  8, 270,
  8, 271,
  8, 273,
  8, 278,
  8, 280,
  8, 281,
  8, 284,
  8, 285,
  8, 286,
  8, 287,
  8, 289,
  8, 290,
  8, 302,
  8, 303,
  8, 306,
  8, 307,
  8, 308,
  8, 317,
  8, 321,
  8, 322,
  8, 326,
  8, 331,
  8, 336,
  8, 337,
  8, 338,
  8, 339,
  8, 340,
  8, 342,
  8, 343,
  8, 344,
  8, 345,
  8, 346,
  8, 347,
  8, 349,
  8, 352,
  8, 353,
  8, 356,
  8, 357,
  8, 358,
  8, 360,
  8, 361,
  8, 363,
  8, 365,
  8, 366,
  8, 367,
  8, 370,
  8, 372,
  8, 373,
  8, 375,
  8, 376,
  8, 378,
  8, 380,
  8, 381,
  8, 385,
  8, 387,
  8, 389,
  8, 393,
  8, 394,
  8, 400,
  9, 10,
  9, 11,
  9, 12,
  9, 13,
  9, 16,
  9, 17,
  9, 18,
  9, 19,
  9, 20,
  9, 23,
  9, 26,
  9, 30,
  9, 32,
  9, 33,
  9, 35,
  9, 37,
  9, 38,
  9, 39,
  9, 40,
  9, 42,
  9, 45,
  9, 46,
  9, 47,
  9, 48,
  9, 51,
  9, 52,
  9, 55,
  9, 57,
  9, 62,
  9, 65,
  9, 66,
  9, 68,
  9, 69,
  9, 72,
  9, 74,
  9, 75,
  9, 76,
  9, 77,
  9, 79,
  9, 80,
  9, 86,
  9, 87,
  9, 89,
  9, 91,
  9, 94,
  9, 98,
  9, 100,
  9, 104,
  9, 106,
  9, 107,
  9, 108,
  9, 109,
  9, 113,
  9, 114,
  9, 116,
  9, 117,
  9, 122,
  9, 125,
  9, 127,
  9, 128,
  9, 129,
  9, 133,
  9, 134,
  9, 135,
  9, 136,
  9, 137,
  9, 144,
  9, 145,
  9, 148,
  9, 149,
  9, 152,
  9, 154,
  9, 155,
  9, 160,
  9, 161,
  9, 163,
  9, 169,
  9, 171,
  9, 172,
  9, 174,
  9, 178,
  9, 179,
  9, 180,
  9, 183,
  9, 184,
  9, 185,
  9, 186,
  9, 187,
  9, 188,
  9, 190,
  9, 192,
  9, 193,
  9, 195,
  9, 196,
  9, 197,
  9, 199,
  9, 200,
  9, 201,
  9, 202,
  9, 204,
  9, 205,
  9, 209,
  9, 213,
  9, 215,
  9, 217,
  9, 218,
  9, 219,
  9, 220,
  9, 221,
  9, 224,
  9, 225,
  9, 226,
  9, 230,
  9, 231,
  9, 238,
  9, 241,
  9, 242,
  9, 246,
  9, 247,
  9, 250,
  9, 251,
  9, 252,
  9, 254,
  9, 258,
  9, 259,
  9, 260,
  9, 262,
  9, 263,
  9, 264,
  9, 266,
  9, 269,
  9, 273,
  9, 274,
  9, 276,
  9, 277,
  9, 280,
  9, 281,
  9, 283,
  9, 285,
  9, 287,
  9, 289,
  9, 291,
  9, 293,
  9, 296,
  9, 297,
  9, 301,
  9, 303,
  9, 304,
  9, 305,
  9, 306,
  9, 308,
  9, 309,
  9, 310,
  9, 312,
  9, 313,
  9, 314,
  9, 316,
  9, 318,
  9, 319,
  9, 321,
  9, 325,
  9, 326,
  9, 327,
  9, 332,
  9, 335,
  9, 338,
  9, 341,
  9, 344,
  9, 345,
  9, 349,
  9, 353,
  9, 355,
  9, 356,
  9, 357,
  9, 359,
  9, 360,
  9, 363,
  9, 365,
  9, 366,
  9, 368,
  9, 372,
  9, 373,
  9, 374,
  9, 376,
  9, 378,
  9, 380,
  9, 384,
  9, 385,
  9, 386,
  9, 387,
  9, 388,
  9, 391,
  9, 392,
  9, 394,
  9, 395,
  9, 396,
  9, 398,
  9, 399,
  9, 400,
  10, 13,
  10, 14,
  10, 15,
  10, 19,
  10, 20,
  10, 21,
  10, 22,
  10, 27,
  10, 32,
  10, 33,
  10, 37,
  10, 38,
  10, 39,
  10, 43,
  10, 44,
  10, 45,
  10, 46,
  10, 47,
  10, 50,
  10, 51,
  10, 52,
  10, 53,
  10, 55,
  10, 57,
  10, 58,
  10, 59,
  10, 61,
  10, 66,
  10, 68,
  10, 69,
  10, 70,
  10, 72,
  10, 73,
  10, 75,
  10, 77,
  10, 81,
  10, 83,
  10, 84,
  10, 85,
  10, 87,
  10, 88,
  10, 90,
  10, 91,
  10, 93,
  10, 94,
  10, 97,
  10, 99,
  10, 100,
  10, 102,
  10, 103,
  10, 104,
  10, 105,
  10, 106,
  10, 108,
  10, 109,
  10, 111,
  10, 112,
  10, 114,
  10, 117,
  10, 118,
  10, 119,
  10, 124,
  10, 125,
  10, 127,
  10, 128,
  10, 131,
  10, 133,
  10, 135,
  10, 137,
  10, 141,
  10, 142,
  10, 143,
  10, 145,
  10, 147,
  10, 150,
  10, 156,
  10, 157,
  10, 159,
  10, 161,
  10, 162,
  10, 163,
  10, 165,
  10, 166,
  10, 168,
  10, 170,
  10, 173,
  10, 177,
  10, 179,
  10, 181,
  10, 182,
  10, 183,
  10, 184,
  10, 187,
  10, 189,
  10, 190,
  10, 193,
  10, 199,
  10, 200,
  10, 201,
  10, 203,
  10, 204,
  10, 207,
  10, 208,
  10, 212,
  10, 213,
  10, 214,
  10, 216,
  10, 219,
  10, 221,
  10, 223,
  10, 224,
  10, 226,
  10, 227,
  10, 228,
  10, 230,
  10, 231,
  10, 232,
  10, 239,
  10, 240,
  10, 242,
  10, 247,
  10, 251,
  10, 252,
  10, 253,
  10, 254,
  10, 255,
  10, 257,
  10, 260,
  10, 261,
  10, 268,
  10, 269,
  10, 272,
  10, 276,
  10, 277,
  10, 280,
  10, 281,
  10, 284,
  10, 287,
  10, 288,
  10, 292,
  10, 294,
  10, 298,
  10, 299,
  10, 300,
  10, 301,
  10, 302,
  10, 303,
  10, 304,
  10, 305,
  10, 306,
  10, 307,
  10, 309,
  10, 316,
  10, 318,
  10, 319,
  10, 320,
  10, 326,
  10, 327,
  10, 328,
  10, 330,
  10, 332,
  10, 335,
  10, 336,
  10, 337,
  10, 340,
  10, 341,
  10, 345,
  10, 347,
  10, 348,
  10, 349,
  10, 351,
  10, 361,
  10, 364,
  10, 365,
  10, 366,
  10, 367,
  10, 368,
  10, 369,
  10, 370,
  10, 372,
  10, 374,
  10, 377,
  10, 378,
  10, 381,
  10, 384,
  10, 386,
  10, 387,
  10, 389,
  10, 390,
  10, 391,
  10, 396,
  10, 398,
  11, 13,
  11, 17,
  11, 19,
  11, 21,
  11, 24,
  11, 26,
  11, 28,
  11, 32,
  11, 33,
  11, 37,
  11, 39,
  11, 40,
  11, 43,
  11, 44,
  11, 45,
  11, 46,
  11, 48,
  11, 49,
  11, 52,
  11, 53,
  11, 54,
  11, 55,
  11, 58,
  11, 60,
  11, 61,
  11, 63,
  11, 66,
  11, 68,
  11, 72,
  11, 73,
  11, 76,
  11, 79,
  11, 80,
  11, 84,
  11, 85,
  11, 86,
  11, 87,
  11, 90,
  11, 92,
  11, 93,
  11, 96,
  11, 100,
  11, 101,
  11, 102,
  11, 105,
  11, 108,
  11, 109,
  11, 112,
  11, 115,
  11, 121,
  11, 124,
  11, 129,
  11, 131,
  11, 132,
  11, 138,
  11, 139,
  11, 144,
  11, 145,
  11, 146,
  11, 149,
  11, 150,
  11, 151,
  11, 152,
  11, 157,
  11, 158,
  11, 159,
  11, 160,
  11, 161,
  11, 162,
  11, 163,
  11, 164,
  11, 166,
  11, 167,
  11, 170,
  11, 171,
  11, 172,
  11, 174,
  11, 177,
  11, 178,
  11, 179,
  11, 180,
  11, 182,
  11, 185,
  11, 188,
  11, 190,
  11, 191,
  11, 198,
  11, 201,
  11, 203,
  11, 205,
  11, 206,
  11, 207,
  11, 208,
  11, 209,
  11, 210,
  11, 211,
  11, 214,
  11, 215,
  11, 218,
  11, 220,
  11, 226,
  11, 227,
  11, 229,
  11, 230,
  11, 235,
  11, 238,
  11, 240,
  11, 241,
  11, 243,
  11, 245,
  11, 250,
  11, 253,
  11, 254,
  11, 256,
  11, 257,
  11, 258,
  11, 260,
  11, 267,
  11, 268,
  11, 269,
  11, 273,
  11, 274,
  11, 275,
  11, 278,
  11, 280,
  11, 287,
  11, 288,
  11, 289,
  11, 292,
  11, 294,
  11, 297,
  11, 298,
  11, 300,
  11, 301,
  11, 302,
  11, 304,
  11, 305,
  11, 307,
  11, 310,
  11, 313,
  11, 318,
  11, 319,
  11, 322,
  11, 324,
  11, 327,
  11, 329,
  11, 334,
  11, 338,
  11, 340,
  11, 341,
  11, 344,
  11, 345,
  11, 346,
  11, 347,
  11, 352,
  11, 353,
  11, 355,
  11, 356,
  11, 357,
  11, 358,
  11, 361,
  11, 362,
  11, 365,
  11, 368,
  11, 369,
  11, 370,
  11, 375,
  11, 376,
  11, 377,
  11, 378,
  11, 383,
  11, 385,
  11, 386,
  11, 387,
  11, 389,
  11, 390,
  11, 395,
  11, 396,
  11, 397,
  11, 399,
  12, 15,
  12, 16,
  12, 17,
  12, 20,
  12, 21,
  12, 22,
  12, 23,
  12, 24,
  12, 25,
  12, 29,
  12, 31,
  12, 32,
  12, 33,
  12, 35,
  12, 37,
  12, 38,
  12, 39,
  12, 40,
  12, 41,
  12, 48,
  12, 51,
  12, 52,
  12, 53,
  12, 54,
  12, 56,
  12, 57,
  12, 58,
  12, 60,
  12, 62,
  12, 65,
  12, 67,
  12, 68,
  12, 69,
  12, 73,
  12, 75,
  12, 82,
  12, 84,
  12, 87,
  12, 88,
  12, 90,
  12, 91,
  12, 93,
  12, 95,
  12, 100,
  12, 101,
  12, 103,
  12, 104,
  12, 105,
  12, 106,
  12, 109,
  12, 110,
  12, 113,
  12, 114,
  12, 115,
  12, 116,
  12, 118,
  12, 119,
  12, 121,
  12, 122,
  12, 123,
  12, 124,
  12, 126,
  12, 127,
  12, 129,
  12, 132,
  12, 134,
  12, 137,
  12, 138,
  12, 139,
  12, 140,
  12, 142,
  12, 143,
  12, 144,
  12, 146,
  12, 148,
  12, 151,
  12, 152,
  12, 156,
  12, 158,
  12, 161,
  12, 164,
  12, 167,
  12, 168,
  12, 170,
  12, 174,
  12, 175,
  12, 176,
  12, 178,
  12, 181,
  12, 187,
  12, 188,
  12, 189,
  12, 191,
  12, 192,
  12, 193,
  12, 195,
  12, 196,
  12, 197,
  12, 199,
  12, 203,
  12, 204,
  12, 205,
  12, 206,
  12, 208,
  12, 214,
  12, 219,
  12, 220,
  12, 221,
  12, 223,
  12, 224,
  12, 227,
  12, 228,
  12, 230,
  12, 237,
  12, 238,
  12, 241,
  12, 242,
  12, 244,
  12, 246,
  12, 248,
  12, 249,
  12, 250,
  12, 252,
  12, 254,
  12, 255,
  12, 258,
  12, 260,
  12, 262,
  12, 263,
  12, 265,
  12, 266,
  12, 271,
  12, 272,
  12, 273,
  12, 274,
  12, 275,
  12, 277,
  12, 278,
  12, 280,
  12, 282,
  12, 283,
  12, 284,
  12, 287,
  12, 288,
  12, 289,
  12, 292,
  12, 293,
  12, 294,
  12, 295,
  12, 296,
  12, 297,
  12, 298,
  12, 300,
  12, 303,
  12, 305,
  12, 306,
  12, 307,
  12, 308,
  12, 310,
  12, 311,
  12, 312,
  12, 313,
  12, 314,
  12, 315,
  12, 317,
  12, 318,
  12, 323,
  12, 326,
  12, 327,
  12, 328,
  12, 334,
  12, 337,
  12, 338,
  12, 342,
  12, 343,
  12, 344,
  12, 346,
  12, 348,
  12, 351,
  12, 354,
  12, 355,
  12, 356,
  12, 358,
  12, 360,
  12, 361,
  12, 362,
  12, 363,
  12, 366,
  12, 370,
  12, 375,
  12, 376,
  12, 377,
  12, 378,
  12, 379,
  12, 380,
  12, 381,
  12, 383,
  12, 384,
  12, 386,
  12, 388,
  12, 389,
  12, 391,
  12, 394,
  12, 395,
  12, 396,
  12, 398,
  12, 399,
  13, 14,
  13, 15,
  13, 17,
  13, 18,
  13, 19,
  13, 21,
  13, 22,
  13, 24,
  13, 25,
  13, 28,
  13, 31,
  13, 34,
  13, 35,
  13, 38,
  13, 40,
  13, 42,
  13, 43,
  13, 45,
  13, 46,
  13, 48,
  13, 51,
  13, 52,
  13, 53,
  13, 54,
  13, 58,
  13, 60,
  13, 61,
  13, 62,
  13, 65,
  13, 67,
  13, 71,
  13, 72,
  13, 73,
  13, 74,
  13, 75,
  13, 76,
  13, 77,
  13, 78,
  13, 81,
  13, 83,
  13, 85,
  13, 86,
  13, 88,
  13, 90,
  13, 91,
  13, 94,
  13, 95,
  13, 96,
  13, 99,
  13, 101,
  13, 102,
  13, 103,
  13, 105,
  13, 108,
  13, 109,
  13, 112,
  13, 113,
  13, 114,
  13, 115,
  13, 116,
  13, 117,
  13, 118,
  13, 123,
  13, 125,
  13, 127,
  13, 129,
  13, 130,
  13, 132,
  13, 134,
  13, 137,
  13, 138,
  13, 139,
  13, 140,
  13, 142,
  13, 143,
  13, 146,
  13, 147,
  13, 150,
  13, 153,
  13, 154,
  13, 160,
  13, 164,
  13, 165,
  13, 167,
  13, 169,
  13, 171,
  13, 172,
  13, 174,
  13, 176,
  13, 178,
  13, 179,
  13, 181,
  13, 182,
  13, 183,
  13, 184,
  13, 185,
  13, 187,
  13, 189,
  13, 190,
  13, 192,
  13, 194,
  13, 197,
  13, 198,
  13, 199,
  13, 200,
  13, 202,
  13, 203,
  13, 204,
  13, 206,
  13, 208,
  13, 209,
  13, 212,
  13, 216,
  13, 217,
  13, 218,
  13, 221,
  13, 223,
  13, 224,
  13, 226,
  13, 227,
  13, 228,
  13, 229,
  13, 230,
  13, 234,
  13, 235,
  13, 236,
  13, 238,
  13, 239,
  13, 240,
  13, 241,
  13, 243,
  13, 247,
  13, 250,
  13, 253,
  13, 255,
  13, 256,
  13, 261,
  13, 263,
  13, 265,
  13, 268,
  13, 271,
  13, 272,
  13, 274,
  13, 276,
  13, 277,
  13, 282,
  13, 283,
  13, 285,
  13, 287,
  13, 292,
  13, 294,
  13, 296,
  13, 297,
  13, 300,
  13, 301,
  13, 302,
  13, 304,
  13, 305,
  13, 306,
  13, 310,
  13, 315,
  13, 316,
  13, 323,
  13, 325,
  13, 329,
  13, 330,
  13, 333,
  13, 338,
  13, 345,
  13, 346,
  13, 347,
  13, 348,
  13, 355,
  13, 356,
  13, 358,
  13, 359,
  13, 360,
  13, 361,
  13, 362,
  13, 364,
  13, 365,
  13, 366,
  13, 370,
  13, 371,
  13, 372,
  13, 376,
  13, 380,
  13, 382,
  13, 383,
  13, 384,
  13, 385,
  13, 386,
  13, 388,
  13, 391,
  13, 394,
  13, 396,
  13, 397,
  13, 399,
  13, 400,
  14, 16,
  14, 27,
  14, 29,
  14, 31,
  14, 32,
  14, 35,
  14, 37,
  14, 39,
  14, 44,
  14, 45,
  14, 46,
  14, 47,
  14, 48,
  14, 52,
  14, 54,
  14, 56,
  14, 59,
  14, 62,
  14, 64,
  14, 66,
  14, 69,
  14, 70,
  14, 74,
  14, 77,
  14, 79,
  14, 81,
  14, 89,
  14, 92,
  14, 93,
  14, 96,
  14, 98,
  14, 99,
  14, 100,
  14, 101,
  14, 102,
  14, 103,
  14, 107,
  14, 108,
  14, 109,
  14, 110,
  14, 111,
  14, 114,
  14, 117,
  14, 120,
  14, 121,
  14, 123,
  14, 125,
  14, 126,
  14, 127,
  14, 131,
  14, 134,
  14, 136,
  14, 138,
  14, 140,
  14, 142,
  14, 143,
  14, 146,
  14, 147,
  14, 148,
  14, 154,
  14, 155,
  14, 156,
  14, 158,
  14, 159,
  14, 162,
  14, 163,
  14, 164,
  14, 165,
  14, 167,
  14, 171,
  14, 175,
  14, 177,
  14, 178,
  14, 183,
  14, 184,
  14, 185,
  14, 186,
  14, 188,
  14, 190,
  14, 191,
  14, 193,
  14, 194,
  14, 197,
  14, 198,
  14, 207,
  14, 208,
  14, 209,
  14, 214,
  14, 215,
  14, 219,
  14, 220,
  14, 222,
  14, 224,
  14, 225,
  14, 228,
  14, 229,
  14, 234,
  14, 235,
  14, 240,
  14, 241,
  14, 242,
  14, 244,
  14, 246,
  14, 247,
  14, 248,
  14, 249,
  14, 250,
  14, 251,
  14, 252,
  14, 253,
  14, 256,
  14, 259,
  14, 261,
  14, 263,
  14, 266,
  14, 267,
  14, 270,
  14, 271,
  14, 272,
  14, 273,
  14, 275,
  14, 277,
  14, 278,
  14, 280,
  14, 290,
  14, 291,
  14, 293,
  14, 294,
  14, 299,
  14, 302,
  14, 303,
  14, 304,
  14, 308,
  14, 309,
  14, 314,
  14, 316,
  14, 318,
  14, 319,
  14, 321,
  14, 324,
  14, 325,
  14, 327,
  14, 328,
  14, 330,
  14, 331,
  14, 333,
  14, 335,
  14, 336,
  14, 337,
  14, 339,
  14, 342,
  14, 344,
  14, 345,
  14, 347,
  14, 348,
  14, 350,
  14, 352,
  14, 353,
  14, 354,
  14, 355,
  14, 357,
  14, 359,
  14, 360,
  14, 364,
  14, 365,
  14, 367,
  14, 372,
  14, 373,
  14, 376,
  14, 377,
  14, 378,
  14, 379,
  14, 380,
  14, 382,
  14, 388,
  14, 390,
  14, 391,
  14, 392,
  14, 394,
  14, 395,
  14, 397,
  14, 398,
  15, 17,
  15, 18,
  15, 19,
  15, 25,
  15, 27,
  15, 28,
  15, 29,
  15, 31,
  15, 32,
  15, 34,
  15, 37,
  15, 39,
  15, 40,
  15, 41,
  15, 43,
  15, 45,
  15, 49,
  15, 50,
  15, 52,
  15, 53,
  15, 54,
  15, 55,
  15, 56,
  15, 58,
  15, 61,
  15, 62,
  15, 64,
  15, 66,
  15, 68,
  15, 71,
  15, 74,
  15, 76,
  15, 77,
  15, 82,
  15, 83,
  15, 85,
  15, 86,
  15, 90,
  15, 92,
  15, 95,
  15, 96,
  15, 97,
  15, 98,
  15, 99,
  15, 100,
  15, 101,
  15, 102,
  15, 103,
  15, 106,
  15, 108,
  15, 110,
  15, 112,
  15, 116,
  15, 119,
  15, 121,
  15, 123,
  15, 124,
  15, 126,
  15, 127,
  15, 130,
  15, 131,
  15, 133,
  15, 134,
  15, 136,
  15, 137,
  15, 138,
  15, 139,
  15, 140,
  15, 141,
  15, 144,
  15, 148,
  15, 150,
  15, 151,
  15, 153,
  15, 154,
  15, 156,
  15, 159,
  15, 163,
  15, 166,
  15, 167,
  15, 168,
  15, 169,
  15, 172,
  15, 173,
  15, 177,
  15, 178,
  15, 180,
  15, 181,
  15, 182,
  15, 183,
  15, 185,
  15, 187,
  15, 189,
  15, 190,
  15, 191,
  15, 192,
  15, 196,
  15, 198,
  15, 204,
  15, 206,
  15, 208,
  15, 210,
  15, 212,
  15, 214,
  15, 215,
  15, 217,
  15, 219,
  15, 220,
  15, 222,
  15, 223,
  15, 224,
  15, 225,
  15, 226,
  15, 229,
  15, 231,
  15, 232,
  15, 233,
  15, 234,
  15, 236,
  15, 237,
  15, 238,
  15, 239,
  15, 241,
  15, 243,
  15, 245,
  15, 246,
  15, 248,
  15, 249,
  15, 250,
  15, 251,
  15, 252,
  15, 253,
  15, 254,
  15, 258,
  15, 259,
  15, 260,
  15, 261,
  15, 263,
  15, 265,
  15, 266,
  15, 267,
  15, 269,
  15, 270,
  15, 271,
  15, 274,
  15, 275,
  15, 278,
  15, 279,
  15, 283,
  15, 286,
  15, 289,
  15, 290,
  15, 291,
  15, 293,
  15, 294,
  15, 296,
  15, 297,
  15, 298,
  15, 301,
  15, 304,
  15, 305,
  15, 309,
  15, 311,
  15, 312,
  15, 313,
  15, 316,
  15, 317,
  15, 318,
  15, 319,
  15, 320,
  15, 321,
  15, 322,
  15, 323,
  15, 326,
  15, 327,
  15, 329,
  15, 331,
  15, 333,
  15, 335,
  15, 336,
  15, 338,
  15, 343,
  15, 344,
  15, 345,
  15, 346,
  15, 349,
  15, 352,
  15, 354,
  15, 355,
  15, 356,
  15, 360,
  15, 365,
  15, 367,
  15, 368,
  15, 369,
  15, 370,
  15, 371,
  15, 376,
  15, 377,
  15, 379,
  15, 381,
  15, 387,
  15, 390,
  15, 391,
  15, 395,
  15, 396,
  15, 399,
  16, 18,
  16, 20,
  16, 23,
  16, 25,
  16, 26,
  16, 27,
  16, 31,
  16, 34,
  16, 35,
  16, 36,
  16, 39,
  16, 40,
  16, 42,
  16, 43,
  16, 47,
  16, 49,
  16, 51,
  16, 52,
  16, 54,
  16, 55,
  16, 56,
  16, 58,
  16, 59,
  16, 61,
  16, 62,
  16, 63,
  16, 64,
  16, 69,
  16, 70,
  16, 71,
  16, 73,
  16, 74,
  16, 75,
  16, 76,
  16, 80,
  16, 82,
  16, 83,
  16, 85,
  16, 87,
  16, 88,
  16, 89,
  16, 90,
  16, 91,
  16, 95,
  16, 96,
  16, 97,
  16, 98,
  16, 100,
  16, 101,
  16, 102,
  16, 103,
  16, 104,
  16, 105,
  16, 107,
  16, 116,
  16, 118,
  16, 119,
  16, 120,
  16, 121,
  16, 122,
  16, 123,
  16, 124,
  16, 125,
  16, 126,
  16, 128,
  16, 137,
  16, 138,
  16, 140,
  16, 141,
  16, 142,
  16, 143,
  16, 145,
  16, 148,
  16, 151,
  16, 152,
  16, 153,
  16, 155,
  16, 156,
  16, 157,
  16, 159,
  16, 160,
  16, 162,
  16, 163,
  16, 164,
  16, 166,
  16, 167,
  16, 169,
  16, 171,
  16, 172,
  16, 174,
  16, 177,
  16, 181,
  16, 183,
  16, 185,
  16, 187,
  16, 189,
  16, 192,
  16, 194,
  16, 196,
  16, 200,
  16, 201,
  16, 203,
  16, 204,
  16, 207,
  16, 208,
  16, 214,
  16, 215,
  16, 216,
  16, 217,
  16, 218,
  16, 222,
  16, 224,
  16, 226,
  16, 227,
  16, 228,
  16, 229,
  16, 230,
  16, 231,
  16, 235,
  16, 239,
  16, 240,
  16, 241,
  16, 244,
  16, 245,
  16, 246,
  16, 249,
  16, 253,
  16, 254,
  16, 256,
  16, 257,
  16, 260,
  16, 262,
  16, 263,
  16, 268,
  16, 270,
  16, 272,
  16, 273,
  16, 274,
  16, 275,
  16, 277,
  16, 281,
  16, 282,
  16, 284,
  16, 285,
  16, 286,
  16, 287,
  16, 288,
  16, 293,
  16, 295,
  16, 296,
  16, 297,
  16, 298,
  16, 299,
  16, 301,
  16, 303,
  16, 304,
  16, 305,
  16, 306,
  16, 307,
  16, 309,
  16, 311,
  16, 315,
  16, 317,
  16, 319,
  16, 320,
  16, 324,
  16, 329,
  16, 332,
  16, 334,
  16, 336,
  16, 337,
  16, 338,
  16, 341,
  16, 342,
  16, 343,
  16, 344,
  16, 350,
  16, 355,
  16, 359,
  16, 360,
  16, 361,
  16, 363,
  16, 364,
  16, 366,
  16, 369,
  16, 370,
  16, 371,
  16, 375,
  16, 377,
  16, 378,
  16, 379,
  16, 383,
  16, 385,
  16, 386,
  16, 387,
  16, 388,
  16, 390,
  16, 394,
  16, 396,
  16, 398,
  16, 400,
  17, 20,
  17, 21,
  17, 23,
  17, 25,
  17, 26,
  17, 27,
  17, 28,
  17, 29,
  17, 30,
  17, 31,
  17, 33,
  17, 34,
  17, 35,
  17, 36,
  17, 39,
  17, 40,
  17, 45,
  17, 54,
  17, 57,
  17, 58,
  17, 59,
  17, 60,
  17, 63,
  17, 66,
  17, 67,
  17, 69,
  17, 71,
  17, 74,
  17, 75,
  17, 76,
  17, 79,
  17, 80,
  17, 82,
  17, 84,
  17, 88,
  17, 89,
  17, 90,
  17, 91,
  17, 92,
  17, 93,
  17, 94,
  17, 95,
  17, 97,
  17, 98,
  17, 100,
  17, 101,
  17, 102,
  17, 103,
  17, 104,
  17, 105,
  17, 106,
  17, 110,
  17, 112,
  17, 113,
  17, 117,
  17, 120,
  17, 121,
  17, 123,
  17, 124,
  17, 125,
  17, 127,
  17, 128,
  17, 129,
  17, 130,
  17, 132,
  17, 134,
  17, 135,
  17, 138,
  17, 139,
  17, 142,
  17, 143,
  17, 145,
  17, 147,
  17, 150,
  17, 152,
  17, 154,
  17, 159,
  17, 162,
  17, 168,
  17, 169,
  17, 170,
  17, 175,
  17, 177,
  17, 179,
  17, 183,
  17, 184,
  17, 187,
  17, 189,
  17, 190,
  17, 191,
  17, 192,
  17, 193,
  17, 197,
  17, 198,
  17, 199,
  17, 200,
  17, 201,
  17, 203,
  17, 206,
  17, 207,
  17, 208,
  17, 211,
  17, 216,
  17, 217,
  17, 218,
  17, 220,
  17, 221,
  17, 224,
  17, 226,
  17, 228,
  17, 229,
  17, 232,
  17, 237,
  17, 238,
  17, 239,
  17, 242,
  17, 243,
  17, 246,
  17, 252,
  17, 253,
  17, 255,
  17, 256,
  17, 258,
  17, 260,
  17, 261,
  17, 265,
  17, 270,
  17, 279,
  17, 280,
  17, 282,
  17, 285,
  17, 287,
  17, 288,
  17, 291,
  17, 293,
  17, 295,
  17, 297,
  17, 298,
  17, 303,
  17, 305,
  17, 306,
  17, 308,
  17, 311,
  17, 314,
  17, 316,
  17, 319,
  17, 328,
  17, 329,
  17, 332,
  17, 333,
  17, 334,
  17, 337,
  17, 338,
  17, 339,
  17, 344,
  17, 346,
  17, 348,
  17, 351,
  17, 352,
  17, 353,
  17, 355,
  17, 357,
  17, 358,
  17, 360,
  17, 361,
  17, 362,
  17, 363,
  17, 364,
  17, 365,
  17, 366,
  17, 367,
  17, 368,
  17, 373,
  17, 382,
  17, 383,
  17, 384,
  17, 385,
  17, 389,
  17, 391,
  17, 392,
  17, 394,
  17, 397,
  17, 399,
  17, 400,
  18, 19,
  18, 20,
  18, 24,
  18, 25,
  18, 26,
  18, 27,
  18, 28,
  18, 36,
  18, 37,
  18, 39,
  18, 40,
  18, 41,
  18, 45,
  18, 48,
  18, 49,
  18, 50,
  18, 52,
  18, 53,
  18, 54,
  18, 55,
  18, 58,
  18, 62,
  18, 63,
  18, 64,
  18, 67,
  18, 68,
  18, 69,
  18, 70,
  18, 71,
  18, 73,
  18, 76,
  18, 78,
  18, 83,
  18, 84,
  18, 86,
  18, 88,
  18, 89,
  18, 92,
  18, 93,
  18, 97,
  18, 99,
  18, 101,
  18, 102,
  18, 104,
  18, 108,
  18, 109,
  18, 111,
  18, 116,
  18, 118,
  18, 119,
  18, 121,
  18, 122,
  18, 123,
  18, 125,
  18, 126,
  18, 127,
  18, 128,
  18, 129,
  18, 132,
  18, 133,
  18, 136,
  18, 137,
  18, 138,
  18, 139,
  18, 141,
  18, 144,
  18, 146,
  18, 147,
  18, 149,
  18, 151,
  18, 152,
  18, 154,
  18, 156,
  18, 160,
  18, 161,
  18, 162,
  18, 163,
  18, 164,
  18, 166,
  18, 167,
  18, 169,
  18, 171,
  18, 172,
  18, 173,
  18, 177,
  18, 179,
  18, 180,
  18, 182,
  18, 184,
  18, 185,
  18, 186,
  18, 187,
  18, 188,
  18, 190,
  18, 194,
  18, 197,
  18, 198,
  18, 200,
  18, 201,
  18, 202,
  18, 204,
  18, 205,
  18, 206,
  18, 207,
  18, 208,
  18, 209,
  18, 210,
  18, 211,
  18, 212,
  18, 219,
  18, 220,
  18, 224,
  18, 225,
  18, 226,
  18, 228,
  18, 229,
  18, 230,
  18, 231,
  18, 232,
  18, 234,
  18, 235,
  18, 236,
  18, 238,
  18, 240,
  18, 241,
  18, 242,
  18, 245,
  18, 246,
  18, 247,
  18, 248,
  18, 250,
  18, 252,
  18, 254,
  18, 255,
  18, 256,
  18, 257,
  18, 260,
  18, 262,
  18, 270,
  18, 271,
  18, 274,
  18, 275,
  18, 276,
  18, 278,
  18, 281,
  18, 282,
  18, 283,
  18, 284,
  18, 285,
  18, 287,
  18, 288,
  18, 289,
  18, 293,
  18, 294,
  18, 298,
  18, 301,
  18, 303,
  18, 304,
  18, 309,
  18, 310,
  18, 311,
  18, 312,
  18, 314,
  18, 321,
  18, 322,
  18, 323,
  18, 327,
  18, 328,
  18, 333,
  18, 334,
  18, 335,
  18, 336,
  18, 337,
  18, 338,
  18, 340,
  18, 343,
  18, 345,
  18, 350,
  18, 351,
  18, 352,
  18, 353,
  18, 356,
  18, 357,
  18, 359,
  18, 360,
  18, 362,
  18, 364,
  18, 365,
  18, 366,
  18, 367,
  18, 370,
  18, 372,
  18, 373,
  18, 375,
  18, 377,
  18, 378,
  18, 380,
  18, 382,
  18, 384,
  18, 385,
  18, 387,
  18, 389,
  18, 390,
  18, 392,
  18, 394,
  18, 396,
  18, 398,
  18, 400,
  19, 23,
  19, 24,
  19, 26,
  19, 27,
  19, 29,
  19, 30,
  19, 33,
  19, 36,
  19, 38,
  19, 40,
  19, 41,
  19, 43,
  19, 44,
  19, 45,
  19, 47,
  19, 48,
  19, 49,
  19, 50,
  19, 54,
  19, 55,
  19, 56,
  19, 59,
  19, 60,
  19, 61,
  19, 63,
  19, 64,
  19, 66,
  19, 67,
  19, 70,
  19, 74,
  19, 75,
  19, 77,
  19, 78,
  19, 79,
  19, 82,
  19, 84,
  19, 86,
  19, 87,
  19, 88,
  19, 90,
  19, 93,
  19, 94,
  19, 96,
  19, 100,
  19, 101,
  19, 102,
  19, 104,
  19, 106,
  19, 108,
  19, 110,
  19, 112,
  19, 113,
  19, 114,
  19, 115,
  19, 120,
  19, 126,
  19, 130,
  19, 131,
  19, 133,
  19, 134,
  19, 139,
  19, 140,
  19, 141,
  19, 142,
  19, 144,
  19, 146,
  19, 148,
  19, 150,
  19, 151,
  19, 157,
  19, 160,
  19, 163,
  19, 164,
  19, 170,
  19, 171,
  19, 172,
  19, 175,
  19, 176,
  19, 182,
  19, 183,
  19, 184,
  19, 185,
  19, 186,
  19, 188,
  19, 192,
  19, 193,
  19, 194,
  19, 196,
  19, 197,
  19, 201,
  19, 202,
  19, 204,
  19, 205,
  19, 207,
  19, 208,
  19, 209,
  19, 210,
  19, 211,
  19, 215,
  19, 217,
  19, 220,
  19, 226,
  19, 228,
  19, 229,
  19, 231,
  19, 232,
  19, 234,
  19, 236,
  19, 237,
  19, 240,
  19, 241,
  19, 242,
  19, 244,
  19, 246,
  19, 248,
  19, 253,
  19, 254,
  19, 257,
  19, 258,
  19, 259,
  19, 263,
  19, 264,
  19, 265,
  19, 266,
  19, 267,
  19, 269,
  19, 271,
  19, 274,
  19, 276,
  19, 277,
  19, 279,
  19, 286,
  19, 288,
  19, 289,
  19, 290,
  19, 291,
  19, 292,
  19, 293,
  19, 294,
  19, 295,
  19, 296,
  19, 299,
  19, 302,
  19, 303,
  19, 304,
  19, 306,
  19, 312,
  19, 313,
  19, 317,
  19, 320,
  19, 326,
  19, 328,
  19, 332,
  19, 339,
  19, 343,
  19, 344,
  19, 346,
  19, 348,
  19, 354,
  19, 357,
  19, 358,
  19, 363,
  19, 366,
  19, 367,
  19, 368,
  19, 372,
  19, 373,
  19, 374,
  19, 377,
  19, 379,
  19, 381,
  19, 383,
  19, 385,
  19, 387,
  19, 388,
  19, 389,
  19, 393,
  19, 396,
  19, 397,
  19, 398,
  19, 399,
  20, 21,
  20, 22,
  20, 24,
  20, 26,
  20, 29,
  20, 32,
  20, 33,
  20, 39,
  20, 42,
  20, 44,
  20, 45,
  20, 47,
  20, 52,
  20, 53,
  20, 55,
  20, 58,
  20, 60,
  20, 61,
  20, 65,
  20, 66,
  20, 69,
  20, 70,
  20, 71,
  20, 73,
  20, 78,
  20, 79,
  20, 82,
  20, 83,
  20, 85,
  20, 89,
  20, 90,
  20, 91,
  20, 92,
  20, 94,
  20, 95,
  20, 98,
  20, 100,
  20, 101,
  20, 102,
  20, 105,
  20, 108,
  20, 109,
  20, 110,
  20, 112,
  20, 113,
  20, 114,
  20, 115,
  20, 117,
  20, 119,
  20, 120,
  20, 121,
  20, 122,
  20, 123,
  20, 127,
  20, 128,
  20, 130,
  20, 131,
  20, 132,
  20, 133,
  20, 134,
  20, 135,
  20, 136,
  20, 137,
  20, 138,
  20, 140,
  20, 144,
  20, 146,
  20, 147,
  20, 153,
  20, 156,
  20, 157,
  20, 158,
  20, 161,
  20, 162,
  20, 164,
  20, 165,
  20, 166,
  20, 169,
  20, 173,
  20, 176,
  20, 177,
  20, 178,
  20, 183,
  20, 186,
  20, 187,
  20, 189,
  20, 196,
  20, 198,
  20, 200,
  20, 201,
  20, 202,
  20, 203,
  20, 206,
  20, 208,
  20, 210,
  20, 214,
  20, 215,
  20, 216,
  20, 217,
  20, 218,
  20, 219,
  20, 220,
  20, 221,
  20, 224,
  20, 226,
  20, 228,
  20, 231,
  20, 233,
  20, 234,
  20, 236,
  20, 238,
  20, 240,
  20, 242,
  20, 243,
  20, 245,
  20, 246,
  20, 247,
  20, 249,
  20, 251,
  20, 252,
  20, 254,
  20, 256,
  20, 257,
  20, 258,
  20, 259,
  20, 260,
  20, 266,
  20, 270,
  20, 272,
  20, 275,
  20, 277,
  20, 278,
  20, 279,
  20, 281,
  20, 284,
  20, 286,
  20, 287,
  20, 288,
  20, 289,
  20, 292,
  20, 294,
  20, 295,
  20, 296,
  20, 297,
  20, 298,
  20, 301,
  20, 307,
  20, 308,
  20, 309,
  20, 312,
  20, 313,
  20, 316,
  20, 317,
  20, 323,
  20, 326,
  20, 327,
  20, 331,
  20, 333,
  20, 338,
  20, 342,
  20, 343,
  20, 344,
  20, 345,
  20, 353,
  20, 354,
  20, 357,
  20, 361,
  20, 363,
  20, 366,
  20, 367,
  20, 368,
  20, 369,
  20, 370,
  20, 371,
  20, 375,
  20, 378,
  20, 379,
  20, 381,
  20, 384,
  20, 385,
  20, 387,
  20, 389,
  20, 393,
  20, 398,
  20, 400,
  21, 26,
  21, 29,
  21, 33,
  21, 34,
  21, 37,
  21, 38,
  21, 39,
  21, 41,
  21, 42,
  21, 44,
  21, 45,
  21, 46,
  21, 49,
  21, 51,
  21, 54,
  21, 57,
  21, 60,
  21, 61,
  21, 63,
  21, 64,
  21, 70,
  21, 74,
  21, 75,
  21, 78,
  21, 79,
  21, 85,
  21, 86,
  21, 90,
  21, 93,
  21, 95,
  21, 96,
  21, 97,
  21, 99,
  21, 100,
  21, 106,
  21, 110,
  21, 111,
  21, 112,
  21, 114,
  21, 118,
  21, 120,
  21, 122,
  21, 126,
  21, 128,
  21, 130,
  21, 131,
  21, 132,
  21, 134,
  21, 136,
  21, 137,
  21, 138,
  21, 141,
  21, 145,
  21, 146,
  21, 147,
  21, 148,
  21, 150,
  21, 154,
  21, 156,
  21, 158,
  21, 160,
  21, 162,
  21, 164,
  21, 166,
  21, 167,
  21, 171,
  21, 173,
  21, 174,
  21, 175,
  21, 176,
  21, 178,
  21, 181,
  21, 182,
  21, 185,
  21, 187,
  21, 188,
  21, 190,
  21, 192,
  21, 193,
  21, 196,
  21, 197,
  21, 201,
  21, 206,
  21, 207,
  21, 208,
  21, 211,
  21, 212,
  21, 213,
  21, 214,
  21, 215,
  21, 216,
  21, 217,
  21, 218,
  21, 220,
  21, 222,
  21, 223,
  21, 224,
  21, 225,
  21, 228,
  21, 230,
  21, 231,
  21, 235,
  21, 236,
  21, 238,
  21, 239,
  21, 240,
  21, 242,
  21, 246,
  21, 248,
  21, 249,
  21, 250,
  21, 251,
  21, 260,
  21, 262,
  21, 266,
  21, 269,
  21, 270,
  21, 272,
  21, 273,
  21, 276,
  21, 278,
  21, 279,
  21, 280,
  21, 282,
  21, 284,
  21, 286,
  21, 287,
  21, 297,
  21, 301,
  21, 302,
  21, 303,
  21, 304,
  21, 305,
  21, 307,
  21, 308,
  21, 310,
  21, 311,
  21, 312,
  21, 313,
  21, 314,
  21, 318,
  21, 321,
  21, 323,
  21, 324,
  21, 326,
  21, 327,
  21, 330,
  21, 331,
  21, 332,
  21, 333,
  21, 334,
  21, 335,
  21, 336,
  21, 340,
  21, 341,
  21, 342,
  21, 351,
  21, 353,
  21, 355,
  21, 357,
  21, 359,
  21, 360,
  21, 362,
  21, 363,
  21, 364,
  21, 370,
  21, 373,
  21, 374,
  21, 377,
  21, 379,
  21, 381,
  21, 382,
  21, 383,
  21, 384,
  21, 385,
  21, 386,
  21, 390,
  21, 391,
  21, 393,
  21, 396,
  21, 397,
  21, 399,
  21, 400,
  22, 23,
  22, 27,
  22, 28,
  22, 29,
  22, 33,
  22, 34,
  22, 36,
  22, 37,
  22, 47,
  22, 48,
  22, 51,
  22, 53,
  22, 54,
  22, 55,
  22, 56,
  22, 57,
  22, 61,
  22, 64,
  22, 65,
  22, 66,
  22, 67,
  22, 72,
  22, 73,
  22, 76,
  22, 77,
  22, 78,
  22, 80,
  22, 82,
  22, 83,
  22, 85,
  22, 86,
  22, 87,
  22, 89,
  22, 90,
  22, 91,
  22, 95,
  22, 96,
  22, 97,
  22, 99,
  22, 101,
  22, 102,
  22, 103,
  22, 104,
  22, 110,
  22, 113,
  22, 114,
  22, 118,
  22, 122,
  22, 124,
  22, 125,
  22, 127,
  22, 130,
  22, 133,
  22, 134,
  22, 137,
  22, 139,
  22, 140,
  22, 141,
  22, 142,
  22, 143,
  22, 144,
  22, 146,
  22, 153,
  22, 158,
  22, 159,
  22, 160,
  22, 165,
  22, 167,
  22, 169,
  22, 170,
  22, 171,
  22, 172,
  22, 174,
  22, 178,
  22, 179,
  22, 181,
  22, 184,
  22, 189,
  22, 190,
  22, 194,
  22, 197,
  22, 199,
  22, 202,
  22, 204,
  22, 206,
  22, 207,
  22, 208,
  22, 214,
  22, 216,
  22, 217,
  22, 223,
  22, 224,
  22, 225,
  22, 226,
  22, 227,
  22, 228,
  22, 230,
  22, 234,
  22, 236,
  22, 244,
  22, 245,
  22, 246,
  22, 249,
  22, 250,
  22, 252,
  22, 253,
  22, 258,
  22, 260,
  22, 262,
  22, 271,
  22, 273,
  22, 275,
  22, 276,
  22, 277,
  22, 280,
  22, 281,
  22, 282,
  22, 284,
  22, 287,
  22, 289,
  22, 290,
  22, 291,
  22, 293,
  22, 294,
  22, 295,
  22, 298,
  22, 299,
  22, 302,
  22, 303,
  22, 304,
  22, 306,
  22, 311,
  22, 312,
  22, 315,
  22, 316,
  22, 317,
  22, 319,
  22, 320,
  22, 321,
  22, 323,
  22, 325,
  22, 327,
  22, 328,
  22, 329,
  22, 330,
  22, 331,
  22, 336,
  22, 342,
  22, 344,
  22, 345,
  22, 348,
  22, 356,
  22, 359,
  22, 361,
  22, 362,
  22, 366,
  22, 368,
  22, 370,
  22, 373,
  22, 374,
  22, 375,
  22, 377,
  22, 382,
  22, 384,
  22, 387,
  22, 388,
  22, 390,
  22, 391,
  22, 392,
  22, 393,
  22, 396,
  22, 398,
  23, 25,
  23, 26,
  23, 28,
  23, 29,
  23, 30,
  23, 32,
  23, 34,
  23, 36,
  23, 38,
  23, 39,
  23, 40,
  23, 41,
  23, 42,
  23, 43,
  23, 45,
  23, 46,
  23, 47,
  23, 48,
  23, 50,
  23, 51,
  23, 52,
  23, 54,
  23, 56,
  23, 57,
  23, 59,
  23, 64,
  23, 66,
  23, 67,
  23, 75,
  23, 79,
  23, 83,
  23, 84,
  23, 85,
  23, 86,
  23, 87,
  23, 90,
  23, 93,
  23, 94,
  23, 96,
  23, 97,
  23, 98,
  23, 100,
  23, 102,
  23, 104,
  23, 107,
  23, 108,
  23, 112,
  23, 113,
  23, 114,
  23, 116,
  23, 118,
  23, 119,
  23, 122,
  23, 125,
  23, 126,
  23, 127,
  23, 128,
  23, 129,
  23, 134,
  23, 135,
  23, 139,
  23, 142,
  23, 143,
  23, 147,
  23, 150,
  23, 152,
  23, 157,
  23, 158,
  23, 159,
  23, 160,
  23, 161,
  23, 162,
  23, 163,
  23, 164,
  23, 165,
  23, 166,
  23, 167,
  23, 171,
  23, 174,
  23, 175,
  23, 176,
  23, 177,
  23, 178,
  23, 181,
  23, 182,
  23, 183,
  23, 184,
  23, 186,
  23, 187,
  23, 188,
  23, 189,
  23, 193,
  23, 194,
  23, 196,
  23, 198,
  23, 202,
  23, 203,
  23, 204,
  23, 205,
  23, 206,
  23, 208,
  23, 210,
  23, 212,
  23, 213,
  23, 215,
  23, 218,
  23, 219,
  23, 224,
  23, 225,
  23, 227,
  23, 229,
  23, 230,
  23, 231,
  23, 232,
  23, 233,
  23, 235,
  23, 237,
  23, 238,
  23, 239,
  23, 243,
  23, 244,
  23, 246,
  23, 247,
  23, 248,
  23, 251,
  23, 252,
  23, 253,
  23, 254,
  23, 257,
  23, 258,
  23, 259,
  23, 260,
  23, 262,
  23, 263,
  23, 265,
  23, 267,
  23, 270,
  23, 271,
  23, 272,
  23, 273,
  23, 275,
  23, 277,
  23, 278,
  23, 279,
  23, 281,
  23, 282,
  23, 287,
  23, 288,
  23, 292,
  23, 293,
  23, 294,
  23, 297,
  23, 299,
  23, 300,
  23, 306,
  23, 307,
  23, 316,
  23, 317,
  23, 319,
  23, 323,
  23, 325,
  23, 330,
  23, 333,
  23, 336,
  23, 341,
  23, 342,
  23, 344,
  23, 345,
  23, 347,
  23, 348,
  23, 349,
  23, 351,
  23, 354,
  23, 356,
  23, 357,
  23, 358,
  23, 359,
  23, 361,
  23, 363,
  23, 368,
  23, 371,
  23, 378,
  23, 380,
  23, 382,
  23, 384,
  23, 387,
  23, 388,
  23, 391,
  23, 393,
  23, 394,
  23, 395,
  23, 399,
  24, 28,
  24, 31,
  24, 32,
  24, 35,
  24, 37,
  24, 39,
  24, 44,
  24, 45,
  24, 47,
  24, 48,
  24, 49,
  24, 50,
  24, 52,
  24, 55,
  24, 56,
  24, 57,
  24, 58,
  24, 60,
  24, 63,
  24, 64,
  24, 65,
  24, 66,
  24, 68,
  24, 71,
  24, 72,
  24, 73,
  24, 76,
  24, 80,
  24, 81,
  24, 82,
  24, 87,
  24, 89,
  24, 90,
  24, 91,
  24, 92,
  24, 96,
  24, 97,
  24, 100,
  24, 102,
  24, 103,
  24, 111,
  24, 112,
  24, 115,
  24, 116,
  24, 117,
  24, 118,
  24, 119,
  24, 120,
  24, 123,
  24, 124,
  24, 125,
  24, 126,
  24, 131,
  24, 133,
  24, 134,
  24, 136,
  24, 137,
  24, 138,
  24, 139,
  24, 140,
  24, 141,
  24, 148,
  24, 150,
  24, 151,
  24, 152,
  24, 153,
  24, 154,
  24, 156,
  24, 157,
  24, 161,
  24, 162,
  24, 163,
  24, 164,
  24, 165,
  24, 166,
  24, 167,
  24, 168,
  24, 169,
  24, 170,
  24, 172,
  24, 174,
  24, 177,
  24, 178,
  24, 181,
  24, 182,
  24, 184,
  24, 186,
  24, 187,
  24, 192,
  24, 193,
  24, 195,
  24, 199,
  24, 203,
  24, 206,
  24, 208,
  24, 211,
  24, 214,
  24, 219,
  24, 220,
  24, 222,
  24, 227,
  24, 228,
  24, 231,
  24, 235,
  24, 236,
  24, 239,
  24, 241,
  24, 242,
  24, 247,
  24, 248,
  24, 249,
  24, 257,
  24, 258,
  24, 259,
  24, 261,
  24, 264,
  24, 265,
  24, 266,
  24, 268,
  24, 272,
  24, 274,
  24, 276,
  24, 285,
  24, 286,
  24, 287,
  24, 288,
  24, 289,
  24, 290,
  24, 292,
  24, 293,
  24, 294,
  24, 295,
  24, 299,
  24, 300,
  24, 302,
  24, 306,
  24, 308,
  24, 309,
  24, 310,
  24, 314,
  24, 316,
  24, 317,
  24, 320,
  24, 321,
  24, 324,
  24, 325,
  24, 328,
  24, 329,
  24, 330,
  24, 331,
  24, 334,
  24, 335,
  24, 336,
  24, 337,
  24, 339,
  24, 348,
  24, 352,
  24, 353,
  24, 354,
  24, 355,
  24, 356,
  24, 360,
  24, 361,
  24, 364,
  24, 367,
  24, 368,
  24, 369,
  24, 371,
  24, 372,
  24, 373,
  24, 374,
  24, 375,
  24, 376,
  24, 378,
  24, 379,
  24, 380,
  24, 381,
  24, 383,
  24, 384,
  24, 386,
  24, 388,
  24, 390,
  24, 394,
  24, 395,
  24, 398,
  24, 399,
  24, 400,
  25, 26,
  25, 27,
  25, 28,
  25, 29,
  25, 30,
  25, 34,
  25, 36,
  25, 38,
  25, 39,
  25, 41,
  25, 43,
  25, 45,
  25, 47,
  25, 49,
  25, 50,
  25, 52,
  25, 53,
  25, 54,
  25, 57,
  25, 62,
  25, 63,
  25, 67,
  25, 72,
  25, 76,
  25, 78,
  25, 79,
  25, 83,
  25, 84,
  25, 85,
  25, 86,
  25, 88,
  25, 89,
  25, 90,
  25, 91,
  25, 92,
  25, 97,
  25, 99,
  25, 101,
  25, 103,
  25, 104,
  25, 107,
  25, 108,
  25, 109,
  25, 110,
  25, 111,
  25, 115,
  25, 116,
  25, 117,
  25, 122,
  25, 123,
  25, 124,
  25, 126,
  25, 127,
  25, 128,
  25, 129,
  25, 130,
  25, 131,
  25, 132,
  25, 139,
  25, 141,
  25, 144,
  25, 146,
  25, 147,
  25, 151,
  25, 157,
  25, 158,
  25, 160,
  25, 161,
  25, 163,
  25, 164,
  25, 165,
  25, 167,
  25, 176,
  25, 177,
  25, 180,
  25, 183,
  25, 185,
  25, 186,
  25, 187,
  25, 191,
  25, 194,
  25, 195,
  25, 196,
  25, 198,
  25, 199,
  25, 200,
  25, 201,
  25, 202,
  25, 207,
  25, 208,
  25, 210,
  25, 211,
  25, 216,
  25, 218,
  25, 221,
  25, 224,
  25, 227,
  25, 232,
  25, 234,
  25, 236,
  25, 237,
  25, 240,
  25, 241,
  25, 244,
  25, 245,
  25, 249,
  25, 251,
  25, 252,
  25, 253,
  25, 255,
  25, 256,
  25, 259,
  25, 260,
  25, 261,
  25, 263,
  25, 264,
  25, 266,
  25, 267,
  25, 268,
  25, 270,
  25, 272,
  25, 274,
  25, 276,
  25, 277,
  25, 279,
  25, 282,
  25, 283,
  25, 286,
  25, 288,
  25, 289,
  25, 290,
  25, 294,
  25, 295,
  25, 297,
  25, 298,
  25, 300,
  25, 301,
  25, 303,
  25, 304,
  25, 305,
  25, 307,
  25, 309,
  25, 311,
  25, 313,
  25, 319,
  25, 321,
  25, 324,
  25, 325,
  25, 329,
  25, 332,
  25, 333,
  25, 334,
  25, 335,
  25, 337,
  25, 340,
  25, 342,
  25, 343,
  25, 344,
  25, 346,
  25, 351,
  25, 352,
  25, 353,
  25, 354,
  25, 355,
  25, 361,
  25, 362,
  25, 364,
  25, 365,
  25, 366,
  25, 370,
  25, 371,
  25, 372,
  25, 373,
  25, 374,
  25, 375,
  25, 378,
  25, 381,
  25, 382,
  25, 384,
  25, 385,
  25, 390,
  25, 391,
  25, 395,
  25, 399,
  25, 400,
  26, 28,
  26, 30,
  26, 31,
  26, 33,
  26, 34,
  26, 35,
  26, 37,
  26, 39,
  26, 44,
  26, 45,
  26, 48,
  26, 49,
  26, 59,
  26, 62,
  26, 63,
  26, 65,
  26, 66,
  26, 70,
  26, 71,
  26, 74,
  26, 76,
  26, 77,
  26, 78,
  26, 81,
  26, 82,
  26, 84,
  26, 85,
  26, 86,
  26, 91,
  26, 92,
  26, 93,
  26, 94,
  26, 95,
  26, 97,
  26, 102,
  26, 103,
  26, 106,
  26, 108,
  26, 111,
  26, 112,
  26, 115,
  26, 118,
  26, 120,
  26, 122,
  26, 123,
  26, 125,
  26, 127,
  26, 131,
  26, 133,
  26, 134,
  26, 135,
  26, 140,
  26, 143,
  26, 144,
  26, 146,
  26, 147,
  26, 148,
  26, 152,
  26, 157,
  26, 159,
  26, 161,
  26, 163,
  26, 165,
  26, 168,
  26, 169,
  26, 173,
  26, 175,
  26, 177,
  26, 178,
  26, 179,
  26, 180,
  26, 182,
  26, 183,
  26, 184,
  26, 185,
  26, 190,
  26, 191,
  26, 194,
  26, 197,
  26, 198,
  26, 199,
  26, 200,
  26, 201,
  26, 203,
  26, 204,
  26, 205,
  26, 206,
  26, 207,
  26, 208,
  26, 210,
  26, 211,
  26, 216,
  26, 217,
  26, 218,
  26, 220,
  26, 225,
  26, 226,
  26, 235,
  26, 238,
  26, 239,
  26, 241,
  26, 242,
  26, 244,
  26, 245,
  26, 246,
  26, 248,
  26, 249,
  26, 250,
  26, 255,
  26, 259,
  26, 262,
  26, 263,
  26, 264,
  26, 265,
  26, 266,
  26, 268,
  26, 271,
  26, 272,
  26, 273,
  26, 274,
  26, 275,
  26, 278,
  26, 281,
  26, 282,
  26, 284,
  26, 289,
  26, 290,
  26, 292,
  26, 295,
  26, 296,
  26, 298,
  26, 302,
  26, 303,
  26, 304,
  26, 305,
  26, 309,
  26, 312,
  26, 315,
  26, 318,
  26, 320,
  26, 321,
  26, 323,
  26, 324,
  26, 325,
  26, 328,
  26, 329,
  26, 330,
  26, 333,
  26, 335,
  26, 336,
  26, 337,
  26, 338,
  26, 340,
  26, 341,
  26, 342,
  26, 345,
  26, 346,
  26, 348,
  26, 349,
  26, 351,
  26, 352,
  26, 354,
  26, 356,
  26, 360,
  26, 363,
  26, 364,
  26, 365,
  26, 366,
  26, 368,
  26, 371,
  26, 372,
  26, 374,
  26, 375,
  26, 379,
  26, 380,
  26, 381,
  26, 384,
  26, 385,
  26, 386,
  26, 388,
  26, 390,
  26, 396,
  26, 397,
  26, 398,
  26, 399,
  27, 28,
  27, 30,
  27, 31,
  27, 32,
  27, 35,
  27, 36,
  27, 38,
  27, 41,
  27, 44,
  27, 46,
  27, 48,
  27, 50,
  27, 52,
  27, 53,
  27, 55,
  27, 56,
  27, 57,
  27, 58,
  27, 59,
  27, 60,
  27, 62,
  27, 63,
  27, 64,
  27, 71,
  27, 76,
  27, 77,
  27, 78,
  27, 80,
  27, 81,
  27, 82,
  27, 84,
  27, 86,
  27, 89,
  27, 90,
  27, 91,
  27, 93,
  27, 97,
  27, 100,
  27, 102,
  27, 103,
  27, 108,
  27, 109,
  27, 110,
  27, 112,
  27, 114,
  27, 116,
  27, 119,
  27, 123,
  27, 124,
  27, 125,
  27, 127,
  27, 128,
  27, 129,
  27, 130,
  27, 131,
  27, 132,
  27, 133,
  27, 134,
  27, 138,
  27, 143,
  27, 145,
  27, 153,
  27, 155,
  27, 156,
  27, 157,
  27, 159,
  27, 160,
  27, 162,
  27, 163,
  27, 164,
  27, 167,
  27, 168,
  27, 172,
  27, 178,
  27, 181,
  27, 185,
  27, 187,
  27, 188,
  27, 191,
  27, 195,
  27, 196,
  27, 198,
  27, 200,
  27, 205,
  27, 206,
  27, 207,
  27, 208,
  27, 210,
  27, 211,
  27, 215,
  27, 217,
  27, 219,
  27, 222,
  27, 225,
  27, 226,
  27, 229,
  27, 231,
  27, 232,
  27, 233,
  27, 238,
  27, 243,
  27, 246,
  27, 247,
  27, 248,
  27, 250,
  27, 251,
  27, 252,
  27, 254,
  27, 258,
  27, 262,
  27, 268,
  27, 270,
  27, 273,
  27, 276,
  27, 281,
  27, 285,
  27, 289,
  27, 290,
  27, 292,
  27, 293,
  27, 296,
  27, 297,
  27, 298,
  27, 300,
  27, 301,
  27, 302,
  27, 308,
  27, 309,
  27, 313,
  27, 314,
  27, 315,
  27, 318,
  27, 319,
  27, 323,
  27, 326,
  27, 327,
  27, 331,
  27, 332,
  27, 334,
  27, 335,
  27, 336,
  27, 337,
  27, 344,
  27, 347,
  27, 349,
  27, 351,
  27, 352,
  27, 355,
  27, 357,
  27, 358,
  27, 361,
  27, 362,
  27, 365,
  27, 367,
  27, 372,
  27, 373,
  27, 376,
  27, 378,
  27, 379,
  27, 380,
  27, 382,
  27, 386,
  27, 388,
  27, 389,
  27, 392,
  27, 395,
  27, 396,
  27, 398,
  28, 31,
  28, 34,
  28, 35,
  28, 37,
  28, 38,
  28, 42,
  28, 44,
  28, 47,
  28, 48,
  28, 49,
  28, 50,
  28, 56,
  28, 57,
  28, 58,
  28, 59,
  28, 63,
  28, 64,
  28, 68,
  28, 69,
  28, 70,
  28, 71,
  28, 72,
  28, 73,
  28, 74,
  28, 77,
  28, 78,
  28, 79,
  28, 80,
  28, 82,
  28, 83,
  28, 84,
  28, 85,
  28, 86,
  28, 87,
  28, 88,
  28, 90,
  28, 91,
  28, 92,
  28, 93,
  28, 94,
  28, 96,
  28, 99,
  28, 100,
  28, 102,
  28, 103,
  28, 104,
  28, 106,
  28, 108,
  28, 110,
  28, 120,
  28, 122,
  28, 124,
  28, 128,
  28, 134,
  28, 138,
  28, 139,
  28, 146,
  28, 148,
  28, 152,
  28, 154,
  28, 155,
  28, 160,
  28, 161,
  28, 163,
  28, 168,
  28, 169,
  28, 172,
  28, 174,
  28, 179,
  28, 181,
  28, 182,
  28, 185,
  28, 187,
  28, 188,
  28, 189,
  28, 190,
  28, 191,
  28, 194,
  28, 197,
  28, 198,
  28, 199,
  28, 200,
  28, 201,
  28, 203,
  28, 205,
  28, 207,
  28, 208,
  28, 209,
  28, 210,
  28, 212,
  28, 216,
  28, 217,
  28, 220,
  28, 222,
  28, 224,
  28, 225,
  28, 230,
  28, 231,
  28, 232,
  28, 233,
  28, 234,
  28, 235,
  28, 236,
  28, 238,
  28, 239,
  28, 240,
  28, 244,
  28, 245,
  28, 247,
  28, 249,
  28, 250,
  28, 253,
  28, 254,
  28, 263,
  28, 269,
  28, 271,
  28, 272,
  28, 273,
  28, 275,
  28, 276,
  28, 280,
  28, 282,
  28, 283,
  28, 289,
  28, 291,
  28, 292,
  28, 293,
  28, 294,
  28, 297,
  28, 300,
  28, 301,
  28, 304,
  28, 305,
  28, 307,
  28, 308,
  28, 310,
  28, 311,
  28, 316,
  28, 317,
  28, 321,
  28, 322,
  28, 324,
  28, 331,
  28, 333,
  28, 334,
  28, 335,
  28, 339,
  28, 343,
  28, 344,
  28, 346,
  28, 347,
  28, 348,
  28, 354,
  28, 356,
  28, 357,
  28, 360,
  28, 362,
  28, 367,
  28, 370,
  28, 372,
  28, 378,
  28, 380,
  28, 384,
  28, 385,
  28, 386,
  28, 390,
  28, 392,
  28, 393,
  28, 395,
  28, 397,
  28, 400,
  29, 30,
  29, 31,
  29, 32,
  29, 33,
  29, 34,
  29, 41,
  29, 47,
  29, 48,
  29, 55,
  29, 56,
  29, 57,
  29, 59,
  29, 62,
  29, 65,
  29, 66,
  29, 67,
  29, 70,
  29, 73,
  29, 76,
  29, 78,
  29, 79,
  29, 81,
  29, 82,
  29, 85,
  29, 87,
  29, 92,
  29, 94,
  29, 95,
  29, 98,
  29, 100,
  29, 101,
  29, 103,
  29, 104,
  29, 105,
  29, 111,
  29, 112,
  29, 114,
  29, 115,
  29, 119,
  29, 121,
  29, 123,
  29, 124,
  29, 125,
  29, 126,
  29, 129,
  29, 132,
  29, 133,
  29, 134,
  29, 136,
  29, 137,
  29, 139,
  29, 144,
  29, 145,
  29, 146,
  29, 148,
  29, 151,
  29, 153,
  29, 154,
  29, 155,
  29, 157,
  29, 159,
  29, 160,
  29, 161,
  29, 163,
  29, 164,
  29, 166,
  29, 167,
  29, 168,
  29, 173,
  29, 176,
  29, 179,
  29, 180,
  29, 182,
  29, 183,
  29, 184,
  29, 185,
  29, 186,
  29, 187,
  29, 188,
  29, 189,
  29, 190,
  29, 192,
  29, 193,
  29, 195,
  29, 197,
  29, 198,
  29, 199,
  29, 201,
  29, 202,
  29, 203,
  29, 206,
  29, 209,
  29, 210,
  29, 211,
  29, 215,
  29, 220,
  29, 221,
  29, 222,
  29, 223,
  29, 228,
  29, 229,
  29, 230,
  29, 233,
  29, 235,
  29, 237,
  29, 239,
  29, 242,
  29, 243,
  29, 244,
  29, 245,
  29, 248,
  29, 249,
  29, 250,
  29, 251,
  29, 253,
  29, 257,
  29, 260,
  29, 261,
  29, 264,
  29, 265,
  29, 266,
  29, 267,
  29, 269,
  29, 273,
  29, 275,
  29, 276,
  29, 280,
  29, 282,
  29, 283,
  29, 284,
  29, 288,
  29, 289,
  29, 290,
  29, 291,
  29, 293,
  29, 295,
  29, 298,
  29, 301,
  29, 303,
  29, 304,
  29, 306,
  29, 309,
  29, 310,
  29, 311,
  29, 318,
  29, 321,
  29, 322,
  29, 325,
  29, 326,
  29, 327,
  29, 328,
  29, 329,
  29, 330,
  29, 332,
  29, 333,
  29, 334,
  29, 336,
  29, 337,
  29, 338,
  29, 339,
  29, 340,
  29, 341,
  29, 342,
  29, 347,
  29, 351,
  29, 352,
  29, 356,
  29, 357,
  29, 363,
  29, 365,
  29, 366,
  29, 367,
  29, 369,
  29, 370,
  29, 371,
  29, 373,
  29, 374,
  29, 376,
  29, 379,
  29, 380,
  29, 381,
  29, 383,
  29, 384,
  29, 387,
  29, 389,
  29, 390,
  29, 391,
  29, 396,
  29, 399,
  30, 31,
  30, 32,
  30, 37,
  30, 38,
  30, 39,
  30, 40,
  30, 43,
  30, 45,
  30, 47,
  30, 48,
  30, 49,
  30, 51,
  30, 52,
  30, 55,
  30, 56,
  30, 58,
  30, 61,
  30, 62,
  30, 65,
  30, 66,
  30, 67,
  30, 70,
  30, 74,
  30, 75,
  30, 76,
  30, 78,
  30, 79,
  30, 82,
  30, 83,
  30, 85,
  30, 86,
  30, 90,
  30, 91,
  30, 93,
  30, 94,
  30, 95,
  30, 96,
  30, 97,
  30, 98,
  30, 99,
  30, 101,
  30, 102,
  30, 104,
  30, 105,
  30, 107,
  30, 109,
  30, 112,
  30, 122,
  30, 123,
  30, 127,
  30, 128,
  30, 130,
  30, 131,
  30, 135,
  30, 136,
  30, 137,
  30, 138,
  30, 139,
  30, 140,
  30, 141,
  30, 142,
  30, 146,
  30, 150,
  30, 151,
  30, 154,
  30, 156,
  30, 157,
  30, 159,
  30, 161,
  30, 162,
  30, 163,
  30, 164,
  30, 165,
  30, 166,
  30, 167,
  30, 168,
  30, 169,
  30, 171,
  30, 173,
  30, 176,
  30, 177,
  30, 178,
  30, 179,
  30, 180,
  30, 186,
  30, 189,
  30, 191,
  30, 192,
  30, 193,
  30, 194,
  30, 195,
  30, 196,
  30, 198,
  30, 199,
  30, 203,
  30, 204,
  30, 205,
  30, 206,
  30, 207,
  30, 217,
  30, 219,
  30, 220,
  30, 222,
  30, 224,
  30, 225,
  30, 227,
  30, 230,
  30, 231,
  30, 233,
  30, 234,
  30, 236,
  30, 237,
  30, 238,
  30, 242,
  30, 245,
  30, 249,
  30, 250,
  30, 251,
  30, 254,
  30, 255,
  30, 256,
  30, 257,
  30, 258,
  30, 261,
  30, 263,
  30, 265,
  30, 267,
  30, 268,
  30, 269,
  30, 271,
  30, 272,
  30, 273,
  30, 274,
  30, 275,
  30, 280,
  30, 282,
  30, 285,
  30, 286,
  30, 289,
  30, 290,
  30, 292,
  30, 293,
  30, 294,
  30, 297,
  30, 301,
  30, 302,
  30, 304,
  30, 306,
  30, 310,
  30, 311,
  30, 312,
  30, 317,
  30, 318,
  30, 320,
  30, 321,
  30, 325,
  30, 326,
  30, 328,
  30, 329,
  30, 332,
  30, 334,
  30, 336,
  30, 342,
  30, 350,
  30, 353,
  30, 355,
  30, 356,
  30, 359,
  30, 360,
  30, 361,
  30, 363,
  30, 364,
  30, 366,
  30, 370,
  30, 371,
  30, 372,
  30, 378,
  30, 381,
  30, 382,
  30, 383,
  30, 385,
  30, 386,
  30, 388,
  30, 392,
  30, 393,
  30, 394,
  30, 396,
  30, 400,
  31, 32,
  31, 36,
  31, 39,
  31, 40,
  31, 41,
  31, 45,
  31, 46,
  31, 55,
  31, 59,
  31, 60,
  31, 61,
  31, 69,
  31, 70,
  31, 74,
  31, 75,
  31, 76,
  31, 78,
  31, 79,
  31, 80,
  31, 81,
  31, 83,
  31, 84,
  31, 86,
  31, 88,
  31, 90,
  31, 91,
  31, 93,
  31, 94,
  31, 95,
  31, 101,
  31, 104,
  31, 105,
  31, 110,
  31, 114,
  31, 117,
  31, 120,
  31, 123,
  31, 124,
  31, 125,
  31, 129,
  31, 130,
  31, 133,
  31, 134,
  31, 135,
  31, 137,
  31, 142,
  31, 147,
  31, 149,
  31, 153,
  31, 158,
  31, 160,
  31, 161,
  31, 164,
  31, 165,
  31, 166,
  31, 168,
  31, 172,
  31, 173,
  31, 174,
  31, 177,
  31, 178,
  31, 180,
  31, 181,
  31, 182,
  31, 185,
  31, 187,
  31, 190,
  31, 191,
  31, 193,
  31, 194,
  31, 195,
  31, 197,
  31, 201,
  31, 207,
  31, 208,
  31, 212,
  31, 213,
  31, 214,
  31, 215,
  31, 217,
  31, 220,
  31, 221,
  31, 225,
  31, 226,
  31, 228,
  31, 229,
  31, 230,
  31, 231,
  31, 232,
  31, 233,
  31, 235,
  31, 237,
  31, 239,
  31, 243,
  31, 244,
  31, 246,
  31, 250,
  31, 255,
  31, 256,
  31, 259,
  31, 260,
  31, 261,
  31, 262,
  31, 264,
  31, 272,
  31, 273,
  31, 274,
  31, 276,
  31, 278,
  31, 281,
  31, 283,
  31, 284,
  31, 285,
  31, 288,
  31, 290,
  31, 291,
  31, 292,
  31, 295,
  31, 296,
  31, 297,
  31, 298,
  31, 301,
  31, 302,
  31, 306,
  31, 311,
  31, 312,
  31, 313,
  31, 315,
  31, 316,
  31, 317,
  31, 318,
  31, 321,
  31, 323,
  31, 324,
  31, 327,
  31, 328,
  31, 336,
  31, 341,
  31, 342,
  31, 343,
  31, 344,
  31, 346,
  31, 347,
  31, 352,
  31, 354,
  31, 356,
  31, 362,
  31, 364,
  31, 365,
  31, 366,
  31, 367,
  31, 368,
  31, 369,
  31, 370,
  31, 374,
  31, 375,
  31, 377,
  31, 379,
  31, 384,
  31, 391,
  31, 392,
  31, 393,
  31, 394,
  31, 395,
  31, 397,
  31, 399,
  32, 34,
  32, 36,
  32, 37,
  32, 40,
  32, 46,
  32, 47,
  32, 49,
  32, 50,
  32, 53,
  32, 57,
  32, 58,
  32, 59,
  32, 66,
  32, 67,
  32, 68,
  32, 70,
  32, 72,
  32, 75,
  32, 76,
  32, 78,
  32, 79,
  32, 81,
  32, 83,
  32, 84,
  32, 85,
  32, 86,
  32, 89,
  32, 94,
  32, 97,
  32, 103,
  32, 104,
  32, 107,
  32, 108,
  32, 109,
  32, 112,
  32, 113,
  32, 114,
  32, 115,
  32, 116,
  32, 118,
  32, 125,
  32, 127,
  32, 128,
  32, 133,
  32, 134,
  32, 137,
  32, 138,
  32, 139,
  32, 141,
  32, 143,
  32, 145,
  32, 146,
  32, 148,
  32, 149,
  32, 150,
  32, 151,
  32, 154,
  32, 157,
  32, 158,
  32, 161,
  32, 163,
  32, 166,
  32, 167,
  32, 168,
  32, 170,
  32, 172,
  32, 176,
  32, 178,
  32, 182,
  32, 186,
  32, 189,
  32, 190,
  32, 192,
  32, 195,
  32, 198,
  32, 200,
  32, 201,
  32, 202,
  32, 203,
  32, 207,
  32, 210,
  32, 211,
  32, 213,
  32, 214,
  32, 216,
  32, 218,
  32, 219,
  32, 221,
  32, 223,
  32, 225,
  32, 227,
  32, 228,
  32, 229,
  32, 230,
  32, 233,
  32, 234,
  32, 236,
  32, 237,
  32, 238,
  32, 240,
  32, 241,
  32, 244,
  32, 245,
  32, 246,
  32, 247,
  32, 248,
  32, 250,
  32, 251,
  32, 253,
  32, 254,
  32, 255,
  32, 257,
  32, 258,
  32, 260,
  32, 262,
  32, 263,
  32, 269,
  32, 274,
  32, 275,
  32, 277,
  32, 278,
  32, 279,
  32, 282,
  32, 283,
  32, 291,
  32, 292,
  32, 293,
  32, 294,
  32, 298,
  32, 300,
  32, 303,
  32, 305,
  32, 307,
  32, 308,
  32, 311,
  32, 312,
  32, 315,
  32, 316,
  32, 319,
  32, 320,
  32, 321,
  32, 322,
  32, 325,
  32, 330,
  32, 331,
  32, 332,
  32, 335,
  32, 336,
  32, 337,
  32, 338,
  32, 339,
  32, 343,
  32, 344,
  32, 345,
  32, 346,
  32, 349,
  32, 350,
  32, 351,
  32, 352,
  32, 353,
  32, 356,
  32, 357,
  32, 358,
  32, 360,
  32, 361,
  32, 362,
  32, 363,
  32, 364,
  32, 365,
  32, 367,
  32, 368,
  32, 369,
  32, 370,
  32, 373,
  32, 374,
  32, 376,
  32, 380,
  32, 381,
  32, 382,
  32, 385,
  32, 386,
  32, 387,
  32, 388,
  32, 390,
  32, 392,
  32, 393,
  32, 394,
  32, 396,
  32, 397,
  32, 399,
  32, 400,
  33, 39,
  33, 40,
  33, 42,
  33, 46,
  33, 51,
  33, 52,
  33, 54,
  33, 56,
  33, 57,
  33, 60,
  33, 63,
  33, 66,
  33, 69,
  33, 71,
  33, 73,
  33, 74,
  33, 75,
  33, 77,
  33, 80,
  33, 82,
  33, 83,
  33, 84,
  33, 87,
  33, 88,
  33, 90,
  33, 92,
  33, 96,
  33, 101,
  33, 103,
  33, 104,
  33, 105,
  33, 106,
  33, 108,
  33, 109,
  33, 110,
  33, 111,
  33, 115,
  33, 118,
  33, 119,
  33, 120,
  33, 121,
  33, 122,
  33, 123,
  33, 124,
  33, 125,
  33, 127,
  33, 129,
  33, 130,
  33, 131,
  33, 134,
  33, 136,
  33, 137,
  33, 138,
  33, 140,
  33, 141,
  33, 143,
  33, 147,
  33, 150,
  33, 154,
  33, 155,
  33, 156,
  33, 157,
  33, 163,
  33, 164,
  33, 169,
  33, 171,
  33, 172,
  33, 173,
  33, 174,
  33, 176,
  33, 178,
  33, 181,
  33, 185,
  33, 188,
  33, 189,
  33, 192,
  33, 193,
  33, 194,
  33, 195,
  33, 197,
  33, 198,
  33, 199,
  33, 200,
  33, 202,
  33, 204,
  33, 207,
  33, 208,
  33, 209,
  33, 210,
  33, 213,
  33, 216,
  33, 217,
  33, 219,
  33, 220,
  33, 221,
  33, 222,
  33, 225,
  33, 227,
  33, 228,
  33, 229,
  33, 231,
  33, 233,
  33, 235,
  33, 236,
  33, 238,
  33, 241,
  33, 242,
  33, 243,
  33, 245,
  33, 246,
  33, 247,
  33, 250,
  33, 253,
  33, 254,
  33, 256,
  33, 259,
  33, 260,
  33, 261,
  33, 262,
  33, 263,
  33, 265,
  33, 269,
  33, 270,
  33, 271,
  33, 277,
  33, 278,
  33, 280,
  33, 281,
  33, 286,
  33, 289,
  33, 292,
  33, 294,
  33, 295,
  33, 296,
  33, 297,
  33, 298,
  33, 299,
  33, 305,
  33, 309,
  33, 312,
  33, 313,
  33, 314,
  33, 316,
  33, 317,
  33, 322,
  33, 323,
  33, 327,
  33, 328,
  33, 334,
  33, 335,
  33, 337,
  33, 338,
  33, 340,
  33, 344,
  33, 346,
  33, 349,
  33, 350,
  33, 354,
  33, 355,
  33, 357,
  33, 358,
  33, 361,
  33, 363,
  33, 365,
  33, 366,
  33, 368,
  33, 370,
  33, 372,
  33, 373,
  33, 375,
  33, 376,
  33, 377,
  33, 378,
  33, 380,
  33, 382,
  33, 385,
  33, 386,
  33, 387,
  33, 389,
  33, 391,
  33, 393,
  33, 399,
  33, 400,
  34, 35,
  34, 37,
  34, 42,
  34, 47,
  34, 49,
  34, 51,
  34, 52,
  34, 56,
  34, 57,
  34, 62,
  34, 63,
  34, 66,
  34, 68,
  34, 69,
  34, 73,
  34, 75,
  34, 76,
  34, 79,
  34, 80,
  34, 90,
  34, 94,
  34, 96,
  34, 98,
  34, 99,
  34, 100,
  34, 102,
  34, 107,
  34, 108,
  34, 109,
  34, 111,
  34, 112,
  34, 113,
  34, 115,
  34, 116,
  34, 119,
  34, 120,
  34, 125,
  34, 128,
  34, 130,
  34, 131,
  34, 132,
  34, 133,
  34, 135,
  34, 137,
  34, 139,
  34, 140,
  34, 147,
  34, 151,
  34, 157,
  34, 163,
  34, 164,
  34, 166,
  34, 167,
  34, 168,
  34, 170,
  34, 171,
  34, 173,
  34, 174,
  34, 175,
  34, 176,
  34, 177,
  34, 180,
  34, 183,
  34, 186,
  34, 187,
  34, 188,
  34, 189,
  34, 191,
  34, 196,
  34, 197,
  34, 200,
  34, 204,
  34, 205,
  34, 206,
  34, 207,
  34, 208,
  34, 209,
  34, 210,
  34, 215,
  34, 216,
  34, 219,
  34, 220,
  34, 224,
  34, 225,
  34, 226,
  34, 228,
  34, 229,
  34, 231,
  34, 235,
  34, 238,
  34, 241,
  34, 242,
  34, 243,
  34, 248,
  34, 249,
  34, 250,
  34, 251,
  34, 253,
  34, 258,
  34, 259,
  34, 262,
  34, 263,
  34, 266,
  34, 272,
  34, 274,
  34, 275,
  34, 278,
  34, 279,
  34, 280,
  34, 283,
  34, 284,
  34, 287,
  34, 290,
  34, 291,
  34, 293,
  34, 294,
  34, 298,
  34, 299,
  34, 300,
  34, 302,
  34, 303,
  34, 304,
  34, 308,
  34, 310,
  34, 311,
  34, 312,
  34, 313,
  34, 316,
  34, 317,
  34, 318,
  34, 320,
  34, 321,
  34, 325,
  34, 326,
  34, 327,
  34, 328,
  34, 331,
  34, 333,
  34, 334,
  34, 337,
  34, 343,
  34, 346,
  34, 347,
  34, 353,
  34, 354,
  34, 356,
  34, 358,
  34, 359,
  34, 361,
  34, 362,
  34, 367,
  34, 369,
  34, 370,
  34, 372,
  34, 380,
  34, 381,
  34, 384,
  34, 385,
  34, 387,
  34, 389,
  34, 390,
  34, 392,
  34, 399,
  34, 400,
  35, 36,
  35, 37,
  35, 40,
  35, 43,
  35, 47,
  35, 48,
  35, 50,
  35, 52,
  35, 56,
  35, 60,
  35, 61,
  35, 62,
  35, 63,
  35, 65,
  35, 69,
  35, 70,
  35, 71,
  35, 72,
  35, 73,
  35, 74,
  35, 75,
  35, 76,
  35, 79,
  35, 85,
  35, 88,
  35, 90,
  35, 91,
  35, 92,
  35, 93,
  35, 94,
  35, 96,
  35, 97,
  35, 98,
  35, 102,
  35, 104,
  35, 105,
  35, 107,
  35, 108,
  35, 109,
  35, 111,
  35, 115,
  35, 116,
  35, 117,
  35, 119,
  35, 120,
  35, 124,
  35, 125,
  35, 126,
  35, 128,
  35, 131,
  35, 133,
  35, 134,
  35, 138,
  35, 140,
  35, 143,
  35, 144,
  35, 145,
  35, 147,
  35, 148,
  35, 150,
  35, 151,
  35, 155,
  35, 156,
  35, 158,
  35, 159,
  35, 160,
  35, 161,
  35, 163,
  35, 164,
  35, 165,
  35, 169,
  35, 174,
  35, 175,
  35, 176,
  35, 179,
  35, 182,
  35, 183,
  35, 185,
  35, 187,
  35, 189,
  35, 190,
  35, 191,
  35, 197,
  35, 198,
  35, 202,
  35, 203,
  35, 205,
  35, 206,
  35, 207,
  35, 208,
  35, 210,
  35, 212,
  35, 213,
  35, 214,
  35, 215,
  35, 216,
  35, 218,
  35, 219,
  35, 221,
  35, 222,
  35, 223,
  35, 224,
  35, 226,
  35, 234,
  35, 235,
  35, 238,
  35, 239,
  35, 240,
  35, 243,
  35, 248,
  35, 249,
  35, 251,
  35, 252,
  35, 254,
  35, 255,
  35, 256,
  35, 259,
  35, 260,
  35, 263,
  35, 264,
  35, 266,
  35, 268,
  35, 269,
  35, 271,
  35, 274,
  35, 276,
  35, 280,
  35, 281,
  35, 283,
  35, 284,
  35, 286,
  35, 287,
  35, 288,
  35, 289,
  35, 291,
  35, 292,
  35, 293,
  35, 294,
  35, 295,
  35, 296,
  35, 297,
  35, 298,
  35, 300,
  35, 301,
  35, 302,
  35, 304,
  35, 305,
  35, 306,
  35, 307,
  35, 308,
  35, 310,
  35, 316,
  35, 317,
  35, 318,
  35, 319,
  35, 321,
  35, 322,
  35, 323,
  35, 324,
  35, 325,
  35, 326,
  35, 331,
  35, 333,
  35, 334,
  35, 339,
  35, 341,
  35, 342,
  35, 345,
  35, 347,
  35, 348,
  35, 350,
  35, 352,
  35, 355,
  35, 357,
  35, 361,
  35, 366,
  35, 367,
  35, 369,
  35, 372,
  35, 373,
  35, 375,
  35, 377,
  35, 379,
  35, 381,
  35, 383,
  35, 384,
  35, 387,
  35, 393,
  35, 394,
  35, 396,
  35, 397,
  35, 398,
  35, 400,
  36, 37,
  36, 39,
  36, 40,
  36, 43,
  36, 44,
  36, 45,
  36, 46,
  36, 47,
  36, 48,
  36, 50,
  36, 52,
  36, 54,
  36, 56,
  36, 59,
  36, 60,
  36, 61,
  36, 63,
  36, 67,
  36, 69,
  36, 71,
  36, 72,
  36, 73,
  36, 77,
  36, 80,
  36, 82,
  36, 83,
  36, 84,
  36, 87,
  36, 89,
  36, 91,
  36, 92,
  36, 94,
  36, 96,
  36, 101,
  36, 102,
  36, 103,
  36, 104,
  36, 106,
  36, 111,
  36, 112,
  36, 114,
  36, 115,
  36, 116,
  36, 117,
  36, 118,
  36, 120,
  36, 121,
  36, 122,
  36, 123,
  36, 126,
  36, 129,
  36, 133,
  36, 135,
  36, 136,
  36, 137,
  36, 140,
  36, 143,
  36, 144,
  36, 148,
  36, 152,
  36, 154,
  36, 156,
  36, 159,
  36, 160,
  36, 163,
  36, 165,
  36, 166,
  36, 167,
  36, 168,
  36, 170,
  36, 171,
  36, 172,
  36, 174,
  36, 176,
  36, 179,
  36, 182,
  36, 184,
  36, 185,
  36, 186,
  36, 192,
  36, 193,
  36, 194,
  36, 199,
  36, 200,
  36, 201,
  36, 202,
  36, 203,
  36, 204,
  36, 206,
  36, 207,
  36, 208,
  36, 210,
  36, 213,
  36, 217,
  36, 219,
  36, 221,
  36, 222,
  36, 223,
  36, 224,
  36, 225,
  36, 228,
  36, 236,
  36, 238,
  36, 239,
  36, 241,
  36, 245,
  36, 247,
  36, 250,
  36, 251,
  36, 253,
  36, 255,
  36, 258,
  36, 259,
  36, 260,
  36, 261,
  36, 262,
  36, 264,
  36, 265,
  36, 266,
  36, 269,
  36, 272,
  36, 274,
  36, 275,
  36, 279,
  36, 283,
  36, 285,
  36, 288,
  36, 293,
  36, 295,
  36, 296,
  36, 297,
  36, 299,
  36, 302,
  36, 306,
  36, 307,
  36, 308,
  36, 315,
  36, 316,
  36, 318,
  36, 319,
  36, 322,
  36, 325,
  36, 326,
  36, 333,
  36, 334,
  36, 335,
  36, 336,
  36, 337,
  36, 338,
  36, 343,
  36, 344,
  36, 345,
  36, 346,
  36, 347,
  36, 348,
  36, 349,
  36, 351,
  36, 353,
  36, 354,
  36, 356,
  36, 357,
  36, 358,
  36, 360,
  36, 362,
  36, 363,
  36, 364,
  36, 365,
  36, 366,
  36, 367,
  36, 368,
  36, 370,
  36, 373,
  36, 375,
  36, 376,
  36, 378,
  36, 381,
  36, 384,
  36, 386,
  36, 388,
  36, 389,
  36, 390,
  36, 391,
  36, 394,
  36, 396,
  36, 399,
  36, 400,
  37, 38,
  37, 39,
  37, 40,
  37, 42,
  37, 43,
  37, 49,
  37, 50,
  37, 51,
  37, 52,
  37, 54,
  37, 55,
  37, 57,
  37, 58,
  37, 59,
  37, 62,
  37, 63,
  37, 64,
  37, 66,
  37, 67,
  37, 68,
  37, 69,
  37, 71,
  37, 72,
  37, 73,
  37, 74,
  37, 75,
  37, 76,
  37, 80,
  37, 81,
  37, 85,
  37, 87,
  37, 90,
  37, 92,
  37, 97,
  37, 98,
  37, 100,
  37, 102,
  37, 109,
  37, 110,
  37, 112,
  37, 118,
  37, 121,
  37, 122,
  37, 124,
  37, 125,
  37, 126,
  37, 127,
  37, 128,
  37, 129,
  37, 133,
  37, 135,
  37, 137,
  37, 139,
  37, 141,
  37, 142,
  37, 147,
  37, 148,
  37, 151,
  37, 152,
  37, 154,
  37, 157,
  37, 160,
  37, 162,
  37, 163,
  37, 164,
  37, 165,
  37, 166,
  37, 167,
  37, 168,
  37, 169,
  37, 171,
  37, 174,
  37, 179,
  37, 181,
  37, 182,
  37, 183,
  37, 185,
  37, 187,
  37, 191,
  37, 195,
  37, 196,
  37, 199,
  37, 200,
  37, 202,
  37, 203,
  37, 207,
  37, 210,
  37, 213,
  37, 216,
  37, 221,
  37, 222,
  37, 223,
  37, 226,
  37, 228,
  37, 229,
  37, 230,
  37, 231,
  37, 233,
  37, 234,
  37, 236,
  37, 238,
  37, 241,
  37, 243,
  37, 248,
  37, 249,
  37, 250,
  37, 252,
  37, 258,
  37, 259,
  37, 263,
  37, 264,
  37, 266,
  37, 267,
  37, 268,
  37, 269,
  37, 271,
  37, 272,
  37, 273,
  37, 276,
  37, 280,
  37, 282,
  37, 286,
  37, 287,
  37, 288,
  37, 289,
  37, 293,
  37, 295,
  37, 296,
  37, 297,
  37, 299,
  37, 302,
  37, 303,
  37, 304,
  37, 305,
  37, 306,
  37, 311,
  37, 313,
  37, 314,
  37, 316,
  37, 317,
  37, 318,
  37, 322,
  37, 323,
  37, 324,
  37, 328,
  37, 329,
  37, 332,
  37, 333,
  37, 334,
  37, 335,
  37, 336,
  37, 339,
  37, 342,
  37, 344,
  37, 345,
  37, 346,
  37, 347,
  37, 349,
  37, 350,
  37, 351,
  37, 352,
  37, 353,
  37, 355,
  37, 356,
  37, 357,
  37, 358,
  37, 363,
  37, 367,
  37, 368,
  37, 369,
  37, 370,
  37, 372,
  37, 374,
  37, 375,
  37, 376,
  37, 379,
  37, 381,
  37, 382,
  37, 384,
  37, 387,
  37, 393,
  37, 396,
  37, 397,
  37, 398,
  37, 399,
  37, 400,
  38, 39,
  38, 42,
  38, 43,
  38, 44,
  38, 45,
  38, 47,
  38, 48,
  38, 51,
  38, 55,
  38, 58,
  38, 59,
  38, 60,
  38, 65,
  38, 66,
  38, 71,
  38, 74,
  38, 75,
  38, 80,
  38, 81,
  38, 85,
  38, 87,
  38, 89,
  38, 90,
  38, 91,
  38, 92,
  38, 94,
  38, 95,
  38, 96,
  38, 97,
  38, 98,
  38, 100,
  38, 103,
  38, 104,
  38, 106,
  38, 107,
  38, 108,
  38, 110,
  38, 111,
  38, 115,
  38, 118,
  38, 119,
  38, 121,
  38, 122,
  38, 124,
  38, 129,
  38, 130,
  38, 133,
  38, 137,
  38, 140,
  38, 141,
  38, 142,
  38, 143,
  38, 144,
  38, 146,
  38, 147,
  38, 148,
  38, 151,
  38, 152,
  38, 153,
  38, 156,
  38, 161,
  38, 162,
  38, 163,
  38, 164,
  38, 168,
  38, 171,
  38, 174,
  38, 175,
  38, 177,
  38, 178,
  38, 183,
  38, 184,
  38, 192,
  38, 193,
  38, 196,
  38, 198,
  38, 199,
  38, 206,
  38, 207,
  38, 211,
  38, 214,
  38, 218,
  38, 219,
  38, 222,
  38, 223,
  38, 224,
  38, 228,
  38, 229,
  38, 233,
  38, 234,
  38, 236,
  38, 239,
  38, 240,
  38, 241,
  38, 245,
  38, 249,
  38, 254,
  38, 256,
  38, 258,
  38, 260,
  38, 265,
  38, 272,
  38, 277,
  38, 281,
  38, 282,
  38, 285,
  38, 286,
  38, 291,
  38, 292,
  38, 293,
  38, 297,
  38, 299,
  38, 300,
  38, 302,
  38, 303,
  38, 307,
  38, 308,
  38, 310,
  38, 312,
  38, 313,
  38, 315,
  38, 317,
  38, 319,
  38, 320,
  38, 321,
  38, 323,
  38, 325,
  38, 328,
  38, 329,
  38, 331,
  38, 334,
  38, 336,
  38, 337,
  38, 338,
  38, 342,
  38, 343,
  38, 344,
  38, 345,
  38, 346,
  38, 350,
  38, 351,
  38, 354,
  38, 357,
  38, 358,
  38, 359,
  38, 365,
  38, 366,
  38, 369,
  38, 370,
  38, 372,
  38, 375,
  38, 376,
  38, 378,
  38, 380,
  38, 382,
  38, 383,
  38, 384,
  38, 385,
  38, 387,
  38, 388,
  38, 390,
  38, 395,
  38, 397,
  38, 400,
  39, 40,
  39, 43,
  39, 45,
  39, 47,
  39, 48,
  39, 50,
  39, 51,
  39, 52,
  39, 54,
  39, 59,
  39, 61,
  39, 64,
  39, 67,
  39, 71,
  39, 72,
  39, 73,
  39, 75,
  39, 77,
  39, 81,
  39, 83,
  39, 86,
  39, 87,
  39, 89,
  39, 91,
  39, 92,
  39, 93,
  39, 97,
  39, 100,
  39, 101,
  39, 103,
  39, 104,
  39, 106,
  39, 107,
  39, 108,
  39, 111,
  39, 114,
  39, 117,
  39, 119,
  39, 124,
  39, 125,
  39, 126,
  39, 127,
  39, 128,
  39, 134,
  39, 139,
  39, 140,
  39, 142,
  39, 145,
  39, 147,
  39, 148,
  39, 155,
  39, 156,
  39, 157,
  39, 158,
  39, 160,
  39, 161,
  39, 164,
  39, 169,
  39, 172,
  39, 176,
  39, 177,
  39, 181,
  39, 184,
  39, 185,
  39, 188,
  39, 189,
  39, 190,
  39, 192,
  39, 193,
  39, 194,
  39, 195,
  39, 196,
  39, 199,
  39, 201,
  39, 203,
  39, 204,
  39, 206,
  39, 207,
  39, 208,
  39, 212,
  39, 213,
  39, 215,
  39, 216,
  39, 217,
  39, 218,
  39, 220,
  39, 223,
  39, 224,
  39, 228,
  39, 229,
  39, 231,
  39, 232,
  39, 233,
  39, 234,
  39, 237,
  39, 238,
  39, 241,
  39, 244,
  39, 245,
  39, 247,
  39, 250,
  39, 252,
  39, 254,
  39, 256,
  39, 257,
  39, 258,
  39, 261,
  39, 262,
  39, 263,
  39, 264,
  39, 265,
  39, 268,
  39, 269,
  39, 276,
  39, 280,
  39, 282,
  39, 283,
  39, 285,
  39, 287,
  39, 288,
  39, 292,
  39, 293,
  39, 294,
  39, 296,
  39, 297,
  39, 298,
  39, 299,
  39, 301,
  39, 302,
  39, 303,
  39, 305,
  39, 307,
  39, 308,
  39, 310,
  39, 311,
  39, 313,
  39, 314,
  39, 316,
  39, 320,
  39, 321,
  39, 324,
  39, 325,
  39, 332,
  39, 338,
  39, 344,
  39, 346,
  39, 347,
  39, 349,
  39, 350,
  39, 351,
  39, 352,
  39, 354,
  39, 357,
  39, 358,
  39, 360,
  39, 361,
  39, 365,
  39, 367,
  39, 368,
  39, 371,
  39, 375,
  39, 376,
  39, 378,
  39, 380,
  39, 381,
  39, 382,
  39, 383,
  39, 384,
  39, 385,
  39, 387,
  39, 389,
  39, 390,
  39, 391,
  39, 393,
  39, 394,
  39, 398,
  40, 41,
  40, 42,
  40, 43,
  40, 44,
  40, 47,
  40, 48,
  40, 49,
  40, 54,
  40, 55,
  40, 56,
  40, 57,
  40, 58,
  40, 60,
  40, 64,
  40, 66,
  40, 69,
  40, 70,
  40, 71,
  40, 72,
  40, 73,
  40, 74,
  40, 76,
  40, 78,
  40, 80,
  40, 82,
  40, 84,
  40, 85,
  40, 86,
  40, 87,
  40, 94,
  40, 95,
  40, 96,
  40, 97,
  40, 98,
  40, 99,
  40, 100,
  40, 101,
  40, 102,
  40, 108,
  40, 109,
  40, 110,
  40, 111,
  40, 114,
  40, 116,
  40, 118,
  40, 120,
  40, 122,
  40, 124,
  40, 127,
  40, 129,
  40, 130,
  40, 132,
  40, 134,
  40, 136,
  40, 137,
  40, 138,
  40, 139,
  40, 140,
  40, 141,
  40, 143,
  40, 144,
  40, 145,
  40, 146,
  40, 149,
  40, 150,
  40, 151,
  40, 153,
  40, 154,
  40, 155,
  40, 157,
  40, 165,
  40, 166,
  40, 167,
  40, 168,
  40, 170,
  40, 172,
  40, 177,
  40, 179,
  40, 185,
  40, 186,
  40, 187,
  40, 188,
  40, 189,
  40, 190,
  40, 191,
  40, 193,
  40, 194,
  40, 195,
  40, 196,
  40, 197,
  40, 200,
  40, 203,
  40, 207,
  40, 208,
  40, 210,
  40, 215,
  40, 216,
  40, 217,
  40, 218,
  40, 222,
  40, 223,
  40, 226,
  40, 229,
  40, 230,
  40, 234,
  40, 235,
  40, 236,
  40, 237,
  40, 238,
  40, 240,
  40, 241,
  40, 242,
  40, 243,
  40, 246,
  40, 248,
  40, 249,
  40, 250,
  40, 251,
  40, 252,
  40, 253,
  40, 255,
  40, 257,
  40, 258,
  40, 261,
  40, 264,
  40, 265,
  40, 266,
  40, 272,
  40, 275,
  40, 279,
  40, 283,
  40, 284,
  40, 285,
  40, 286,
  40, 287,
  40, 290,
  40, 291,
  40, 292,
  40, 293,
  40, 296,
  40, 297,
  40, 301,
  40, 304,
  40, 307,
  40, 311,
  40, 317,
  40, 318,
  40, 323,
  40, 325,
  40, 332,
  40, 336,
  40, 337,
  40, 338,
  40, 345,
  40, 347,
  40, 356,
  40, 357,
  40, 358,
  40, 361,
  40, 362,
  40, 363,
  40, 366,
  40, 368,
  40, 369,
  40, 370,
  40, 372,
  40, 378,
  40, 379,
  40, 380,
  40, 381,
  40, 383,
  40, 384,
  40, 385,
  40, 388,
  40, 391,
  40, 394,
  40, 398,
  40, 399,
  41, 43,
  41, 44,
  41, 45,
  41, 47,
  41, 48,
  41, 50,
  41, 52,
  41, 54,
  41, 55,
  41, 56,
  41, 57,
  41, 59,
  41, 60,
  41, 61,
  41, 63,
  41, 65,
  41, 67,
  41, 70,
  41, 71,
  41, 72,
  41, 85,
  41, 86,
  41, 88,
  41, 89,
  41, 94,
  41, 97,
  41, 102,
  41, 104,
  41, 107,
  41, 110,
  41, 111,
  41, 112,
  41, 114,
  41, 116,
  41, 118,
  41, 119,
  41, 123,
  41, 124,
  41, 125,
  41, 126,
  41, 129,
  41, 130,
  41, 131,
  41, 132,
  41, 133,
  41, 134,
  41, 136,
  41, 137,
  41, 138,
  41, 139,
  41, 143,
  41, 144,
  41, 146,
  41, 147,
  41, 148,
  41, 152,
  41, 153,
  41, 154,
  41, 158,
  41, 161,
  41, 162,
  41, 166,
  41, 167,
  41, 168,
  41, 169,
  41, 170,
  41, 173,
  41, 174,
  41, 175,
  41, 177,
  41, 179,
  41, 181,
  41, 183,
  41, 185,
  41, 187,
  41, 190,
  41, 191,
  41, 194,
  41, 195,
  41, 197,
  41, 198,
  41, 201,
  41, 202,
  41, 203,
  41, 204,
  41, 207,
  41, 209,
  41, 217,
  41, 221,
  41, 222,
  41, 224,
  41, 225,
  41, 226,
  41, 229,
  41, 231,
  41, 232,
  41, 235,
  41, 236,
  41, 237,
  41, 238,
  41, 239,
  41, 240,
  41, 242,
  41, 243,
  41, 244,
  41, 245,
  41, 246,
  41, 248,
  41, 249,
  41, 250,
  41, 252,
  41, 253,
  41, 256,
  41, 258,
  41, 259,
  41, 260,
  41, 261,
  41, 265,
  41, 266,
  41, 267,
  41, 268,
  41, 269,
  41, 270,
  41, 272,
  41, 274,
  41, 276,
  41, 277,
  41, 279,
  41, 281,
  41, 282,
  41, 284,
  41, 285,
  41, 286,
  41, 288,
  41, 290,
  41, 291,
  41, 292,
  41, 293,
  41, 294,
  41, 298,
  41, 299,
  41, 300,
  41, 302,
  41, 303,
  41, 307,
  41, 311,
  41, 312,
  41, 318,
  41, 319,
  41, 320,
  41, 321,
  41, 323,
  41, 324,
  41, 328,
  41, 329,
  41, 330,
  41, 331,
  41, 333,
  41, 334,
  41, 336,
  41, 338,
  41, 339,
  41, 340,
  41, 341,
  41, 343,
  41, 344,
  41, 349,
  41, 350,
  41, 351,
  41, 352,
  41, 355,
  41, 356,
  41, 357,
  41, 359,
  41, 360,
  41, 361,
  41, 363,
  41, 364,
  41, 366,
  41, 368,
  41, 369,
  41, 371,
  41, 372,
  41, 374,
  41, 375,
  41, 376,
  41, 377,
  41, 378,
  41, 379,
  41, 380,
  41, 382,
  41, 383,
  41, 385,
  41, 387,
  41, 389,
  41, 396,
  41, 397,
  41, 398,
  41, 399,
  42, 43,
  42, 44,
  42, 45,
  42, 46,
  42, 50,
  42, 52,
  42, 53,
  42, 54,
  42, 55,
  42, 56,
  42, 58,
  42, 59,
  42, 64,
  42, 69,
  42, 70,
  42, 71,
  42, 72,
  42, 75,
  42, 76,
  42, 85,
  42, 86,
  42, 91,
  42, 93,
  42, 94,
  42, 96,
  42, 101,
  42, 102,
  42, 103,
  42, 106,
  42, 107,
  42, 108,
  42, 110,
  42, 111,
  42, 113,
  42, 114,
  42, 116,
  42, 117,
  42, 121,
  42, 122,
  42, 126,
  42, 127,
  42, 128,
  42, 130,
  42, 131,
  42, 132,
  42, 133,
  42, 135,
  42, 137,
  42, 139,
  42, 141,
  42, 142,
  42, 143,
  42, 144,
  42, 145,
  42, 146,
  42, 147,
  42, 150,
  42, 152,
  42, 153,
  42, 155,
  42, 157,
  42, 159,
  42, 163,
  42, 169,
  42, 171,
  42, 172,
  42, 176,
  42, 177,
  42, 178,
  42, 179,
  42, 180,
  42, 181,
  42, 182,
  42, 187,
  42, 192,
  42, 195,
  42, 197,
  42, 198,
  42, 200,
  42, 202,
  42, 203,
  42, 206,
  42, 207,
  42, 210,
  42, 214,
  42, 217,
  42, 220,
  42, 222,
  42, 223,
  42, 224,
  42, 226,
  42, 227,
  42, 230,
  42, 232,
  42, 233,
  42, 235,
  42, 236,
  42, 237,
  42, 238,
  42, 239,
  42, 243,
  42, 244,
  42, 246,
  42, 248,
  42, 251,
  42, 252,
  42, 253,
  42, 255,
  42, 256,
  42, 261,
  42, 262,
  42, 263,
  42, 266,
  42, 269,
  42, 274,
  42, 276,
  42, 277,
  42, 278,
  42, 280,
  42, 282,
  42, 284,
  42, 285,
  42, 293,
  42, 294,
  42, 295,
  42, 299,
  42, 301,
  42, 306,
  42, 307,
  42, 310,
  42, 312,
  42, 313,
  42, 316,
  42, 319,
  42, 322,
  42, 324,
  42, 332,
  42, 335,
  42, 338,
  42, 339,
  42, 343,
  42, 345,
  42, 346,
  42, 348,
  42, 353,
  42, 354,
  42, 355,
  42, 358,
  42, 359,
  42, 362,
  42, 363,
  42, 364,
  42, 365,
  42, 366,
  42, 369,
  42, 372,
  42, 376,
  42, 377,
  42, 380,
  42, 381,
  42, 382,
  42, 384,
  42, 385,
  42, 387,
  42, 389,
  42, 390,
  42, 393,
  42, 395,
  42, 400,
  43, 44,
  43, 47,
  43, 48,
  43, 51,
  43, 56,
  43, 57,
  43, 58,
  43, 65,
  43, 66,
  43, 67,
  43, 70,
  43, 71,
  43, 72,
  43, 73,
  43, 76,
  43, 77,
  43, 78,
  43, 79,
  43, 81,
  43, 83,
  43, 84,
  43, 85,
  43, 87,
  43, 88,
  43, 95,
  43, 96,
  43, 98,
  43, 99,
  43, 102,
  43, 103,
  43, 104,
  43, 106,
  43, 108,
  43, 109,
  43, 110,
  43, 111,
  43, 113,
  43, 115,
  43, 116,
  43, 117,
  43, 120,
  43, 122,
  43, 123,
  43, 124,
  43, 125,
  43, 127,
  43, 130,
  43, 131,
  43, 132,
  43, 134,
  43, 136,
  43, 137,
  43, 139,
  43, 141,
  43, 143,
  43, 148,
  43, 149,
  43, 151,
  43, 152,
  43, 153,
  43, 158,
  43, 161,
  43, 162,
  43, 164,
  43, 165,
  43, 168,
  43, 169,
  43, 172,
  43, 174,
  43, 175,
  43, 176,
  43, 177,
  43, 178,
  43, 179,
  43, 186,
  43, 187,
  43, 189,
  43, 190,
  43, 191,
  43, 192,
  43, 193,
  43, 194,
  43, 196,
  43, 197,
  43, 198,
  43, 202,
  43, 204,
  43, 205,
  43, 207,
  43, 209,
  43, 210,
  43, 211,
  43, 213,
  43, 214,
  43, 216,
  43, 217,
  43, 218,
  43, 219,
  43, 220,
  43, 221,
  43, 223,
  43, 224,
  43, 226,
  43, 227,
  43, 228,
  43, 229,
  43, 231,
  43, 232,
  43, 233,
  43, 238,
  43, 240,
  43, 242,
  43, 243,
  43, 244,
  43, 246,
  43, 247,
  43, 248,
  43, 252,
  43, 253,
  43, 255,
  43, 258,
  43, 261,
  43, 263,
  43, 264,
  43, 268,
  43, 270,
  43, 271,
  43, 275,
  43, 277,
  43, 278,
  43, 286,
  43, 290,
  43, 292,
  43, 293,
  43, 294,
  43, 299,
  43, 300,
  43, 301,
  43, 306,
  43, 307,
  43, 308,
  43, 311,
  43, 312,
  43, 314,
  43, 315,
  43, 320,
  43, 321,
  43, 322,
  43, 323,
  43, 324,
  43, 325,
  43, 326,
  43, 328,
  43, 330,
  43, 331,
  43, 333,
  43, 334,
  43, 336,
  43, 338,
  43, 339,
  43, 340,
  43, 341,
  43, 344,
  43, 345,
  43, 348,
  43, 349,
  43, 350,
  43, 352,
  43, 355,
  43, 360,
  43, 361,
  43, 362,
  43, 363,
  43, 369,
  43, 370,
  43, 371,
  43, 372,
  43, 373,
  43, 374,
  43, 375,
  43, 379,
  43, 381,
  43, 383,
  43, 384,
  43, 385,
  43, 389,
  43, 390,
  43, 392,
  43, 393,
  43, 394,
  43, 395,
  43, 397,
  43, 398,
  44, 45,
  44, 47,
  44, 49,
  44, 51,
  44, 55,
  44, 57,
  44, 61,
  44, 62,
  44, 63,
  44, 64,
  44, 66,
  44, 68,
  44, 69,
  44, 72,
  44, 75,
  44, 76,
  44, 77,
  44, 78,
  44, 81,
  44, 82,
  44, 85,
  44, 89,
  44, 92,
  44, 94,
  44, 96,
  44, 98,
  44, 99,
  44, 101,
  44, 105,
  44, 107,
  44, 109,
  44, 110,
  44, 111,
  44, 113,
  44, 114,
  44, 115,
  44, 117,
  44, 119,
  44, 123,
  44, 125,
  44, 127,
  44, 131,
  44, 133,
  44, 138,
  44, 141,
  44, 143,
  44, 145,
  44, 147,
  44, 149,
  44, 150,
  44, 151,
  44, 154,
  44, 159,
  44, 161,
  44, 165,
  44, 166,
  44, 169,
  44, 171,
  44, 174,
  44, 179,
  44, 180,
  44, 181,
  44, 185,
  44, 187,
  44, 190,
  44, 192,
  44, 194,
  44, 196,
  44, 199,
  44, 206,
  44, 209,
  44, 210,
  44, 216,
  44, 217,
  44, 220,
  44, 223,
  44, 224,
  44, 225,
  44, 226,
  44, 229,
  44, 230,
  44, 231,
  44, 232,
  44, 234,
  44, 236,
  44, 237,
  44, 239,
  44, 240,
  44, 242,
  44, 243,
  44, 244,
  44, 245,
  44, 247,
  44, 248,
  44, 252,
  44, 254,
  44, 255,
  44, 257,
  44, 260,
  44, 261,
  44, 265,
  44, 268,
  44, 269,
  44, 270,
  44, 271,
  44, 272,
  44, 274,
  44, 279,
  44, 280,
  44, 281,
  44, 282,
  44, 285,
  44, 286,
  44, 289,
  44, 290,
  44, 292,
  44, 296,
  44, 299,
  44, 301,
  44, 302,
  44, 303,
  44, 304,
  44, 305,
  44, 308,
  44, 310,
  44, 312,
  44, 314,
  44, 315,
  44, 321,
  44, 323,
  44, 324,
  44, 326,
  44, 327,
  44, 329,
  44, 331,
  44, 332,
  44, 333,
  44, 334,
  44, 336,
  44, 337,
  44, 340,
  44, 341,
  44, 343,
  44, 345,
  44, 346,
  44, 349,
  44, 350,
  44, 351,
  44, 353,
  44, 354,
  44, 355,
  44, 356,
  44, 357,
  44, 361,
  44, 362,
  44, 363,
  44, 365,
  44, 366,
  44, 370,
  44, 374,
  44, 375,
  44, 376,
  44, 379,
  44, 380,
  44, 383,
  44, 385,
  44, 386,
  44, 390,
  44, 393,
  44, 394,
  44, 397,
  45, 46,
  45, 48,
  45, 49,
  45, 50,
  45, 54,
  45, 55,
  45, 57,
  45, 60,
  45, 63,
  45, 67,
  45, 68,
  45, 69,
  45, 71,
  45, 73,
  45, 75,
  45, 77,
  45, 79,
  45, 85,
  45, 86,
  45, 90,
  45, 91,
  45, 93,
  45, 94,
  45, 97,
  45, 100,
  45, 101,
  45, 103,
  45, 104,
  45, 111,
  45, 113,
  45, 116,
  45, 120,
  45, 121,
  45, 122,
  45, 124,
  45, 125,
  45, 126,
  45, 127,
  45, 128,
  45, 129,
  45, 130,
  45, 132,
  45, 139,
  45, 140,
  45, 141,
  45, 146,
  45, 147,
  45, 149,
  45, 152,
  45, 157,
  45, 158,
  45, 161,
  45, 162,
  45, 163,
  45, 165,
  45, 171,
  45, 172,
  45, 173,
  45, 175,
  45, 176,
  45, 177,
  45, 183,
  45, 184,
  45, 185,
  45, 188,
  45, 189,
  45, 190,
  45, 193,
  45, 196,
  45, 197,
  45, 202,
  45, 203,
  45, 205,
  45, 206,
  45, 207,
  45, 209,
  45, 210,
  45, 214,
  45, 216,
  45, 218,
  45, 220,
  45, 221,
  45, 223,
  45, 225,
  45, 227,
  45, 232,
  45, 236,
  45, 237,
  45, 238,
  45, 243,
  45, 244,
  45, 245,
  45, 248,
  45, 253,
  45, 254,
  45, 257,
  45, 258,
  45, 262,
  45, 265,
  45, 267,
  45, 271,
  45, 272,
  45, 273,
  45, 275,
  45, 277,
  45, 278,
  45, 279,
  45, 280,
  45, 283,
  45, 285,
  45, 288,
  45, 291,
  45, 292,
  45, 294,
  45, 298,
  45, 300,
  45, 302,
  45, 303,
  45, 304,
  45, 305,
  45, 306,
  45, 307,
  45, 308,
  45, 309,
  45, 312,
  45, 314,
  45, 316,
  45, 317,
  45, 318,
  45, 319,
  45, 321,
  45, 324,
  45, 327,
  45, 328,
  45, 329,
  45, 331,
  45, 334,
  45, 335,
  45, 336,
  45, 337,
  45, 339,
  45, 340,
  45, 352,
  45, 353,
  45, 355,
  45, 356,
  45, 358,
  45, 360,
  45, 361,
  45, 362,
  45, 363,
  45, 364,
  45, 365,
  45, 367,
  45, 371,
  45, 372,
  45, 373,
  45, 374,
  45, 375,
  45, 378,
  45, 380,
  45, 381,
  45, 382,
  45, 383,
  45, 384,
  45, 385,
  45, 386,
  45, 388,
  45, 389,
  45, 390,
  45, 396,
  46, 51,
  46, 55,
  46, 58,
  46, 64,
  46, 65,
  46, 67,
  46, 68,
  46, 70,
  46, 71,
  46, 75,
  46, 76,
  46, 77,
  46, 81,
  46, 85,
  46, 86,
  46, 88,
  46, 90,
  46, 92,
  46, 95,
  46, 97,
  46, 98,
  46, 99,
  46, 101,
  46, 105,
  46, 106,
  46, 109,
  46, 114,
  46, 115,
  46, 116,
  46, 119,
  46, 120,
  46, 121,
  46, 123,
  46, 125,
  46, 127,
  46, 128,
  46, 129,
  46, 131,
  46, 132,
  46, 134,
  46, 138,
  46, 139,
  46, 140,
  46, 141,
  46, 143,
  46, 148,
  46, 150,
  46, 153,
  46, 154,
  46, 157,
  46, 158,
  46, 159,
  46, 161,
  46, 162,
  46, 166,
  46, 167,
  46, 170,
  46, 171,
  46, 173,
  46, 178,
  46, 180,
  46, 181,
  46, 183,
  46, 184,
  46, 188,
  46, 190,
  46, 191,
  46, 192,
  46, 196,
  46, 198,
  46, 200,
  46, 203,
  46, 207,
  46, 212,
  46, 213,
  46, 215,
  46, 216,
  46, 219,
  46, 220,
  46, 221,
  46, 225,
  46, 230,
  46, 232,
  46, 233,
  46, 235,
  46, 238,
  46, 239,
  46, 243,
  46, 246,
  46, 247,
  46, 250,
  46, 252,
  46, 253,
  46, 254,
  46, 260,
  46, 261,
  46, 263,
  46, 264,
  46, 266,
  46, 267,
  46, 268,
  46, 269,
  46, 270,
  46, 271,
  46, 273,
  46, 274,
  46, 281,
  46, 283,
  46, 289,
  46, 290,
  46, 293,
  46, 294,
  46, 298,
  46, 300,
  46, 304,
  46, 305,
  46, 308,
  46, 312,
  46, 313,
  46, 317,
  46, 318,
  46, 324,
  46, 327,
  46, 332,
  46, 337,
  46, 338,
  46, 340,
  46, 341,
  46, 342,
  46, 343,
  46, 344,
  46, 347,
  46, 348,
  46, 349,
  46, 350,
  46, 352,
  46, 353,
  46, 357,
  46, 359,
  46, 362,
  46, 363,
  46, 366,
  46, 370,
  46, 371,
  46, 374,
  46, 377,
  46, 379,
  46, 382,
  46, 384,
  46, 387,
  46, 388,
  46, 389,
  46, 392,
  46, 393,
  46, 397,
  46, 400,
  47, 50,
  47, 52,
  47, 53,
  47, 55,
  47, 56,
  47, 57,
  47, 58,
  47, 60,
  47, 62,
  47, 64,
  47, 66,
  47, 67,
  47, 69,
  47, 70,
  47, 72,
  47, 73,
  47, 75,
  47, 77,
  47, 81,
  47, 85,
  47, 87,
  47, 88,
  47, 89,
  47, 91,
  47, 92,
  47, 95,
  47, 96,
  47, 97,
  47, 99,
  47, 101,
  47, 104,
  47, 105,
  47, 106,
  47, 107,
  47, 111,
  47, 113,
  47, 114,
  47, 115,
  47, 117,
  47, 118,
  47, 120,
  47, 121,
  47, 122,
  47, 123,
  47, 124,
  47, 130,
  47, 135,
  47, 137,
  47, 140,
  47, 141,
  47, 146,
  47, 148,
  47, 149,
  47, 150,
  47, 151,
  47, 155,
  47, 156,
  47, 157,
  47, 160,
  47, 161,
  47, 165,
  47, 166,
  47, 167,
  47, 171,
  47, 179,
  47, 182,
  47, 183,
  47, 185,
  47, 186,
  47, 187,
  47, 188,
  47, 189,
  47, 195,
  47, 196,
  47, 197,
  47, 199,
  47, 200,
  47, 201,
  47, 202,
  47, 203,
  47, 204,
  47, 205,
  47, 206,
  47, 208,
  47, 209,
  47, 210,
  47, 213,
  47, 216,
  47, 218,
  47, 219,
  47, 220,
  47, 223,
  47, 224,
  47, 225,
  47, 226,
  47, 227,
  47, 228,
  47, 231,
  47, 233,
  47, 234,
  47, 239,
  47, 240,
  47, 241,
  47, 242,
  47, 243,
  47, 244,
  47, 246,
  47, 247,
  47, 248,
  47, 250,
  47, 251,
  47, 252,
  47, 253,
  47, 254,
  47, 257,
  47, 258,
  47, 261,
  47, 262,
  47, 263,
  47, 265,
  47, 266,
  47, 267,
  47, 268,
  47, 269,
  47, 270,
  47, 275,
  47, 276,
  47, 277,
  47, 279,
  47, 280,
  47, 281,
  47, 284,
  47, 289,
  47, 291,
  47, 294,
  47, 296,
  47, 297,
  47, 298,
  47, 299,
  47, 301,
  47, 302,
  47, 306,
  47, 307,
  47, 308,
  47, 310,
  47, 311,
  47, 312,
  47, 313,
  47, 316,
  47, 317,
  47, 319,
  47, 327,
  47, 328,
  47, 330,
  47, 331,
  47, 332,
  47, 335,
  47, 339,
  47, 342,
  47, 343,
  47, 346,
  47, 347,
  47, 349,
  47, 350,
  47, 351,
  47, 352,
  47, 353,
  47, 356,
  47, 357,
  47, 360,
  47, 362,
  47, 366,
  47, 367,
  47, 369,
  47, 370,
  47, 372,
  47, 374,
  47, 375,
  47, 376,
  47, 377,
  47, 378,
  47, 380,
  47, 381,
  47, 382,
  47, 385,
  47, 386,
  47, 387,
  47, 388,
  47, 391,
  47, 392,
  47, 393,
  47, 394,
  47, 396,
  47, 397,
  47, 399,
  47, 400,
  48, 49,
  48, 52,
  48, 53,
  48, 54,
  48, 56,
  48, 58,
  48, 61,
  48, 63,
  48, 65,
  48, 67,
  48, 71,
  48, 72,
  48, 73,
  48, 74,
  48, 76,
  48, 78,
  48, 79,
  48, 80,
  48, 81,
  48, 83,
  48, 84,
  48, 86,
  48, 89,
  48, 91,
  48, 93,
  48, 95,
  48, 96,
  48, 97,
  48, 98,
  48, 99,
  48, 100,
  48, 101,
  48, 104,
  48, 107,
  48, 108,
  48, 109,
  48, 112,
  48, 114,
  48, 115,
  48, 117,
  48, 119,
  48, 122,
  48, 124,
  48, 128,
  48, 130,
  48, 131,
  48, 132,
  48, 134,
  48, 136,
  48, 137,
  48, 139,
  48, 141,
  48, 143,
  48, 144,
  48, 145,
  48, 146,
  48, 148,
  48, 153,
  48, 155,
  48, 158,
  48, 162,
  48, 167,
  48, 168,
  48, 169,
  48, 170,
  48, 171,
  48, 172,
  48, 173,
  48, 178,
  48, 179,
  48, 180,
  48, 182,
  48, 186,
  48, 188,
  48, 189,
  48, 190,
  48, 191,
  48, 192,
  48, 196,
  48, 198,
  48, 199,
  48, 201,
  48, 202,
  48, 203,
  48, 204,
  48, 205,
  48, 208,
  48, 209,
  48, 210,
  48, 214,
  48, 215,
  48, 217,
  48, 221,
  48, 227,
  48, 229,
  48, 231,
  48, 237,
  48, 239,
  48, 240,
  48, 241,
  48, 244,
  48, 246,
  48, 248,
  48, 249,
  48, 250,
  48, 251,
  48, 252,
  48, 253,
  48, 255,
  48, 256,
  48, 259,
  48, 260,
  48, 261,
  48, 265,
  48, 269,
  48, 271,
  48, 278,
  48, 279,
  48, 280,
  48, 282,
  48, 283,
  48, 286,
  48, 287,
  48, 288,
  48, 294,
  48, 295,
  48, 296,
  48, 303,
  48, 306,
  48, 307,
  48, 309,
  48, 316,
  48, 317,
  48, 319,
  48, 320,
  48, 321,
  48, 322,
  48, 327,
  48, 330,
  48, 333,
  48, 335,
  48, 336,
  48, 338,
  48, 339,
  48, 340,
  48, 342,
  48, 343,
  48, 348,
  48, 349,
  48, 352,
  48, 354,
  48, 358,
  48, 360,
  48, 365,
  48, 367,
  48, 368,
  48, 371,
  48, 372,
  48, 373,
  48, 374,
  48, 379,
  48, 381,
  48, 382,
  48, 383,
  48, 385,
  48, 387,
  48, 390,
  48, 391,
  48, 394,
  48, 396,
  48, 397,
  48, 399,
  48, 400,
  49, 50,
  49, 51,
  49, 52,
  49, 55,
  49, 57,
  49, 58,
  49, 59,
  49, 60,
  49, 63,
  49, 64,
  49, 65,
  49, 67,
  49, 68,
  49, 72,
  49, 73,
  49, 74,
  49, 75,
  49, 76,
  49, 82,
  49, 84,
  49, 88,
  49, 89,
  49, 90,
  49, 93,
  49, 94,
  49, 95,
  49, 97,
  49, 98,
  49, 100,
  49, 101,
  49, 103,
  49, 104,
  49, 105,
  49, 109,
  49, 111,
  49, 112,
  49, 113,
  49, 115,
  49, 117,
  49, 118,
  49, 119,
  49, 121,
  49, 124,
  49, 125,
  49, 126,
  49, 127,
  49, 133,
  49, 134,
  49, 135,
  49, 136,
  49, 139,
  49, 140,
  49, 141,
  49, 142,
  49, 143,
  49, 144,
  49, 145,
  49, 146,
  49, 147,
  49, 149,
  49, 151,
  49, 152,
  49, 153,
  49, 154,
  49, 155,
  49, 161,
  49, 162,
  49, 166,
  49, 168,
  49, 169,
  49, 171,
  49, 174,
  49, 175,
  49, 178,
  49, 180,
  49, 181,
  49, 187,
  49, 188,
  49, 190,
  49, 193,
  49, 194,
  49, 195,
  49, 196,
  49, 197,
  49, 198,
  49, 199,
  49, 201,
  49, 202,
  49, 204,
  49, 206,
  49, 207,
  49, 209,
  49, 210,
  49, 211,
  49, 212,
  49, 215,
  49, 216,
  49, 217,
  49, 218,
  49, 219,
  49, 220,
  49, 223,
  49, 225,
  49, 226,
  49, 230,
  49, 231,
  49, 235,
  49, 237,
  49, 238,
  49, 239,
  49, 241,
  49, 242,
  49, 244,
  49, 248,
  49, 253,
  49, 255,
  49, 258,
  49, 263,
  49, 264,
  49, 266,
  49, 267,
  49, 268,
  49, 269,
  49, 271,
  49, 275,
  49, 276,
  49, 277,
  49, 279,
  49, 280,
  49, 282,
  49, 284,
  49, 285,
  49, 286,
  49, 291,
  49, 293,
  49, 294,
  49, 295,
  49, 297,
  49, 298,
  49, 305,
  49, 308,
  49, 309,
  49, 311,
  49, 312,
  49, 314,
  49, 315,
  49, 317,
  49, 318,
  49, 319,
  49, 323,
  49, 324,
  49, 327,
  49, 328,
  49, 330,
  49, 331,
  49, 332,
  49, 333,
  49, 334,
  49, 339,
  49, 343,
  49, 344,
  49, 350,
  49, 351,
  49, 354,
  49, 356,
  49, 358,
  49, 359,
  49, 362,
  49, 368,
  49, 369,
  49, 370,
  49, 372,
  49, 373,
  49, 374,
  49, 375,
  49, 377,
  49, 379,
  49, 380,
  49, 381,
  49, 382,
  49, 383,
  49, 385,
  49, 387,
  49, 388,
  49, 390,
  49, 391,
  49, 392,
  49, 394,
  49, 398,
  49, 399,
  50, 53,
  50, 55,
  50, 56,
  50, 58,
  50, 59,
  50, 60,
  50, 64,
  50, 66,
  50, 71,
  50, 72,
  50, 73,
  50, 77,
  50, 79,
  50, 82,
  50, 85,
  50, 86,
  50, 87,
  50, 88,
  50, 93,
  50, 94,
  50, 95,
  50, 99,
  50, 102,
  50, 104,
  50, 105,
  50, 107,
  50, 108,
  50, 112,
  50, 113,
  50, 117,
  50, 120,
  50, 122,
  50, 123,
  50, 124,
  50, 128,
  50, 129,
  50, 131,
  50, 132,
  50, 135,
  50, 136,
  50, 137,
  50, 138,
  50, 139,
  50, 140,
  50, 141,
  50, 143,
  50, 144,
  50, 146,
  50, 148,
  50, 150,
  50, 151,
  50, 152,
  50, 154,
  50, 155,
  50, 156,
  50, 160,
  50, 161,
  50, 162,
  50, 163,
  50, 164,
  50, 166,
  50, 167,
  50, 168,
  50, 173,
  50, 175,
  50, 178,
  50, 179,
  50, 180,
  50, 182,
  50, 188,
  50, 190,
  50, 191,
  50, 193,
  50, 194,
  50, 195,
  50, 197,
  50, 198,
  50, 199,
  50, 200,
  50, 201,
  50, 203,
  50, 206,
  50, 208,
  50, 209,
  50, 210,
  50, 213,
  50, 214,
  50, 215,
  50, 218,
  50, 222,
  50, 225,
  50, 226,
  50, 227,
  50, 228,
  50, 230,
  50, 231,
  50, 232,
  50, 233,
  50, 237,
  50, 240,
  50, 241,
  50, 245,
  50, 247,
  50, 248,
  50, 250,
  50, 251,
  50, 252,
  50, 253,
  50, 256,
  50, 257,
  50, 259,
  50, 262,
  50, 268,
  50, 272,
  50, 273,
  50, 274,
  50, 275,
  50, 281,
  50, 283,
  50, 285,
  50, 289,
  50, 291,
  50, 292,
  50, 293,
  50, 297,
  50, 298,
  50, 300,
  50, 301,
  50, 302,
  50, 305,
  50, 306,
  50, 307,
  50, 308,
  50, 310,
  50, 315,
  50, 316,
  50, 322,
  50, 323,
  50, 325,
  50, 327,
  50, 330,
  50, 331,
  50, 332,
  50, 333,
  50, 334,
  50, 336,
  50, 338,
  50, 345,
  50, 346,
  50, 347,
  50, 348,
  50, 353,
  50, 356,
  50, 358,
  50, 359,
  50, 361,
  50, 362,
  50, 363,
  50, 364,
  50, 367,
  50, 369,
  50, 371,
  50, 372,
  50, 375,
  50, 378,
  50, 379,
  50, 380,
  50, 381,
  50, 382,
  50, 386,
  50, 392,
  50, 393,
  50, 395,
  50, 396,
  50, 398,
  50, 400,
  51, 53,
  51, 55,
  51, 56,
  51, 57,
  51, 59,
  51, 60,
  51, 62,
  51, 66,
  51, 67,
  51, 69,
  51, 72,
  51, 74,
  51, 77,
  51, 78,
  51, 79,
  51, 80,
  51, 86,
  51, 89,
  51, 94,
  51, 95,
  51, 97,
  51, 101,
  51, 102,
  51, 104,
  51, 105,
  51, 106,
  51, 109,
  51, 110,
  51, 111,
  51, 112,
  51, 113,
  51, 115,
  51, 116,
  51, 119,
  51, 120,
  51, 124,
  51, 125,
  51, 129,
  51, 131,
  51, 132,
  51, 133,
  51, 136,
  51, 139,
  51, 140,
  51, 142,
  51, 143,
  51, 145,
  51, 146,
  51, 148,
  51, 150,
  51, 151,
  51, 152,
  51, 153,
  51, 154,
  51, 158,
  51, 160,
  51, 161,
  51, 168,
  51, 169,
  51, 171,
  51, 173,
  51, 174,
  51, 176,
  51, 177,
  51, 179,
  51, 182,
  51, 183,
  51, 184,
  51, 186,
  51, 187,
  51, 188,
  51, 190,
  51, 191,
  51, 192,
  51, 194,
  51, 195,
  51, 201,
  51, 202,
  51, 203,
  51, 204,
  51, 205,
  51, 207,
  51, 216,
  51, 217,
  51, 218,
  51, 219,
  51, 221,
  51, 222,
  51, 223,
  51, 225,
  51, 227,
  51, 228,
  51, 230,
  51, 235,
  51, 236,
  51, 239,
  51, 240,
  51, 241,
  51, 242,
  51, 243,
  51, 244,
  51, 246,
  51, 248,
  51, 249,
  51, 252,
  51, 253,
  51, 255,
  51, 259,
  51, 261,
  51, 265,
  51, 267,
  51, 268,
  51, 269,
  51, 273,
  51, 274,
  51, 275,
  51, 278,
  51, 281,
  51, 284,
  51, 285,
  51, 289,
  51, 290,
  51, 291,
  51, 293,
  51, 294,
  51, 295,
  51, 298,
  51, 300,
  51, 301,
  51, 302,
  51, 303,
  51, 304,
  51, 305,
  51, 306,
  51, 307,
  51, 308,
  51, 310,
  51, 311,
  51, 316,
  51, 317,
  51, 318,
  51, 319,
  51, 320,
  51, 323,
  51, 325,
  51, 326,
  51, 329,
  51, 333,
  51, 335,
  51, 337,
  51, 341,
  51, 344,
  51, 345,
  51, 346,
  51, 353,
  51, 356,
  51, 357,
  51, 358,
  51, 360,
  51, 365,
  51, 368,
  51, 371,
  51, 372,
  51, 373,
  51, 377,
  51, 382,
  51, 386,
  51, 387,
  51, 388,
  51, 393,
  51, 395,
  51, 396,
  51, 399,
  51, 400,
  52, 55,
  52, 58,
  52, 59,
  52, 61,
  52, 62,
  52, 69,
  52, 70,
  52, 72,
  52, 73,
  52, 76,
  52, 78,
  52, 79,
  52, 81,
  52, 82,
  52, 85,
  52, 87,
  52, 90,
  52, 92,
  52, 97,
  52, 100,
  52, 101,
  52, 102,
  52, 103,
  52, 106,
  52, 111,
  52, 114,
  52, 116,
  52, 119,
  52, 120,
  52, 121,
  52, 125,
  52, 126,
  52, 127,
  52, 129,
  52, 130,
  52, 132,
  52, 133,
  52, 137,
  52, 139,
  52, 140,
  52, 141,
  52, 142,
  52, 143,
  52, 145,
  52, 148,
  52, 150,
  52, 152,
  52, 153,
  52, 154,
  52, 155,
  52, 156,
  52, 157,
  52, 158,
  52, 159,
  52, 161,
  52, 162,
  52, 163,
  52, 165,
  52, 170,
  52, 171,
  52, 172,
  52, 173,
  52, 174,
  52, 176,
  52, 177,
  52, 178,
  52, 179,
  52, 181,
  52, 182,
  52, 184,
  52, 185,
  52, 186,
  52, 187,
  52, 188,
  52, 189,
  52, 191,
  52, 192,
  52, 194,
  52, 196,
  52, 197,
  52, 199,
  52, 204,
  52, 205,
  52, 206,
  52, 207,
  52, 208,
  52, 209,
  52, 210,
  52, 212,
  52, 213,
  52, 215,
  52, 219,
  52, 221,
  52, 224,
  52, 225,
  52, 229,
  52, 233,
  52, 237,
  52, 238,
  52, 240,
  52, 242,
  52, 244,
  52, 245,
  52, 246,
  52, 254,
  52, 257,
  52, 258,
  52, 259,
  52, 260,
  52, 261,
  52, 265,
  52, 267,
  52, 270,
  52, 271,
  52, 273,
  52, 274,
  52, 275,
  52, 277,
  52, 278,
  52, 283,
  52, 284,
  52, 289,
  52, 294,
  52, 295,
  52, 299,
  52, 300,
  52, 301,
  52, 303,
  52, 304,
  52, 305,
  52, 306,
  52, 307,
  52, 308,
  52, 309,
  52, 312,
  52, 315,
  52, 318,
  52, 319,
  52, 321,
  52, 322,
  52, 325,
  52, 327,
  52, 330,
  52, 332,
  52, 333,
  52, 335,
  52, 336,
  52, 338,
  52, 341,
  52, 343,
  52, 346,
  52, 347,
  52, 349,
  52, 350,
  52, 351,
  52, 354,
  52, 355,
  52, 356,
  52, 359,
  52, 363,
  52, 364,
  52, 365,
  52, 367,
  52, 368,
  52, 370,
  52, 372,
  52, 373,
  52, 374,
  52, 377,
  52, 381,
  52, 382,
  52, 383,
  52, 385,
  52, 386,
  52, 387,
  52, 388,
  52, 389,
  52, 390,
  52, 393,
  52, 395,
  52, 399,
  52, 400,
  53, 57,
  53, 58,
  53, 60,
  53, 61,
  53, 67,
  53, 71,
  53, 74,
  53, 75,
  53, 76,
  53, 78,
  53, 82,
  53, 86,
  53, 87,
  53, 89,
  53, 90,
  53, 94,
  53, 97,
  53, 102,
  53, 107,
  53, 108,
  53, 110,
  53, 112,
  53, 115,
  53, 116,
  53, 117,
  53, 118,
  53, 120,
  53, 121,
  53, 123,
  53, 124,
  53, 125,
  53, 127,
  53, 129,
  53, 130,
  53, 132,
  53, 135,
  53, 137,
  53, 138,
  53, 139,
  53, 146,
  53, 147,
  53, 148,
  53, 149,
  53, 151,
  53, 152,
  53, 153,
  53, 154,
  53, 155,
  53, 158,
  53, 159,
  53, 160,
  53, 163,
  53, 164,
  53, 165,
  53, 168,
  53, 171,
  53, 172,
  53, 175,
  53, 176,
  53, 177,
  53, 178,
  53, 180,
  53, 181,
  53, 183,
  53, 190,
  53, 192,
  53, 193,
  53, 194,
  53, 196,
  53, 197,
  53, 198,
  53, 203,
  53, 205,
  53, 208,
  53, 209,
  53, 211,
  53, 212,
  53, 218,
  53, 220,
  53, 221,
  53, 223,
  53, 224,
  53, 226,
  53, 227,
  53, 228,
  53, 230,
  53, 231,
  53, 234,
  53, 237,
  53, 240,
  53, 243,
  53, 244,
  53, 245,
  53, 246,
  53, 248,
  53, 251,
  53, 254,
  53, 255,
  53, 259,
  53, 261,
  53, 266,
  53, 267,
  53, 268,
  53, 270,
  53, 271,
  53, 272,
  53, 274,
  53, 276,
  53, 280,
  53, 283,
  53, 284,
  53, 285,
  53, 287,
  53, 288,
  53, 289,
  53, 290,
  53, 291,
  53, 293,
  53, 294,
  53, 299,
  53, 300,
  53, 303,
  53, 304,
  53, 305,
  53, 306,
  53, 308,
  53, 309,
  53, 310,
  53, 316,
  53, 317,
  53, 319,
  53, 324,
  53, 325,
  53, 326,
  53, 327,
  53, 329,
  53, 330,
  53, 340,
  53, 342,
  53, 346,
  53, 348,
  53, 349,
  53, 350,
  53, 352,
  53, 356,
  53, 357,
  53, 358,
  53, 359,
  53, 367,
  53, 369,
  53, 370,
  53, 371,
  53, 373,
  53, 374,
  53, 376,
  53, 377,
  53, 378,
  53, 379,
  53, 380,
  53, 382,
  53, 384,
  53, 386,
  53, 388,
  53, 390,
  53, 391,
  53, 392,
  53, 393,
  53, 394,
  53, 395,
  53, 396,
  54, 55,
  54, 56,
  54, 59,
  54, 65,
  54, 67,
  54, 69,
  54, 70,
  54, 71,
  54, 72,
  54, 74,
  54, 75,
  54, 76,
  54, 77,
  54, 79,
  54, 81,
  54, 86,
  54, 87,
  54, 88,
  54, 91,
  54, 93,
  54, 95,
  54, 97,
  54, 99,
  54, 100,
  54, 102,
  54, 103,
  54, 104,
  54, 105,
  54, 110,
  54, 113,
  54, 114,
  54, 116,
  54, 121,
  54, 122,
  54, 124,
  54, 125,
  54, 126,
  54, 127,
  54, 128,
  54, 129,
  54, 130,
  54, 132,
  54, 133,
  54, 139,
  54, 141,
  54, 143,
  54, 144,
  54, 145,
  54, 148,
  54, 155,
  54, 156,
  54, 158,
  54, 163,
  54, 164,
  54, 171,
  54, 173,
  54, 175,
  54, 176,
  54, 178,
  54, 180,
  54, 182,
  54, 185,
  54, 186,
  54, 190,
  54, 192,
  54, 196,
  54, 198,
  54, 201,
  54, 202,
  54, 203,
  54, 205,
  54, 206,
  54, 208,
  54, 210,
  54, 211,
  54, 212,
  54, 213,
  54, 214,
  54, 215,
  54, 216,
  54, 219,
  54, 220,
  54, 222,
  54, 223,
  54, 225,
  54, 226,
  54, 230,
  54, 232,
  54, 233,
  54, 238,
  54, 240,
  54, 241,
  54, 242,
  54, 244,
  54, 245,
  54, 246,
  54, 247,
  54, 248,
  54, 250,
  54, 251,
  54, 252,
  54, 253,
  54, 254,
  54, 255,
  54, 258,
  54, 260,
  54, 263,
  54, 265,
  54, 266,
  54, 267,
  54, 268,
  54, 269,
  54, 271,
  54, 272,
  54, 274,
  54, 275,
  54, 278,
  54, 279,
  54, 280,
  54, 281,
  54, 282,
  54, 283,
  54, 285,
  54, 286,
  54, 288,
  54, 291,
  54, 294,
  54, 296,
  54, 298,
  54, 300,
  54, 302,
  54, 303,
  54, 305,
  54, 309,
  54, 312,
  54, 316,
  54, 317,
  54, 322,
  54, 324,
  54, 325,
  54, 333,
  54, 334,
  54, 337,
  54, 338,
  54, 340,
  54, 341,
  54, 342,
  54, 344,
  54, 346,
  54, 347,
  54, 348,
  54, 349,
  54, 350,
  54, 352,
  54, 353,
  54, 354,
  54, 356,
  54, 358,
  54, 361,
  54, 362,
  54, 363,
  54, 365,
  54, 366,
  54, 367,
  54, 369,
  54, 370,
  54, 371,
  54, 374,
  54, 377,
  54, 378,
  54, 379,
  54, 380,
  54, 382,
  54, 384,
  54, 385,
  54, 386,
  54, 387,
  54, 388,
  54, 398,
  54, 399,
  55, 64,
  55, 65,
  55, 66,
  55, 67,
  55, 68,
  55, 71,
  55, 75,
  55, 76,
  55, 78,
  55, 80,
  55, 81,
  55, 82,
  55, 83,
  55, 85,
  55, 89,
  55, 90,
  55, 91,
  55, 98,
  55, 99,
  55, 100,
  55, 102,
  55, 103,
  55, 104,
  55, 105,
  55, 106,
  55, 108,
  55, 111,
  55, 112,
  55, 113,
  55, 118,
  55, 119,
  55, 120,
  55, 121,
  55, 122,
  55, 124,
  55, 125,
  55, 126,
  55, 127,
  55, 133,
  55, 134,
  55, 141,
  55, 145,
  55, 146,
  55, 148,
  55, 150,
  55, 151,
  55, 155,
  55, 156,
  55, 157,
  55, 161,
  55, 162,
  55, 164,
  55, 165,
  55, 167,
  55, 168,
  55, 172,
  55, 174,
  55, 175,
  55, 177,
  55, 178,
  55, 179,
  55, 180,
  55, 181,
  55, 182,
  55, 185,
  55, 186,
  55, 187,
  55, 188,
  55, 189,
  55, 196,
  55, 199,
  55, 200,
  55, 201,
  55, 202,
  55, 204,
  55, 205,
  55, 212,
  55, 214,
  55, 215,
  55, 216,
  55, 219,
  55, 220,
  55, 221,
  55, 226,
  55, 228,
  55, 229,
  55, 230,
  55, 231,
  55, 235,
  55, 236,
  55, 237,
  55, 239,
  55, 241,
  55, 243,
  55, 245,
  55, 246,
  55, 248,
  55, 249,
  55, 252,
  55, 253,
  55, 255,
  55, 256,
  55, 258,
  55, 259,
  55, 262,
  55, 263,
  55, 265,
  55, 266,
  55, 267,
  55, 269,
  55, 271,
  55, 272,
  55, 273,
  55, 274,
  55, 276,
  55, 277,
  55, 280,
  55, 282,
  55, 286,
  55, 287,
  55, 288,
  55, 289,
  55, 290,
  55, 294,
  55, 297,
  55, 299,
  55, 300,
  55, 302,
  55, 304,
  55, 305,
  55, 311,
  55, 313,
  55, 314,
  55, 317,
  55, 319,
  55, 321,
  55, 322,
  55, 324,
  55, 331,
  55, 332,
  55, 333,
  55, 334,
  55, 336,
  55, 337,
  55, 340,
  55, 341,
  55, 344,
  55, 345,
  55, 349,
  55, 355,
  55, 358,
  55, 360,
  55, 364,
  55, 365,
  55, 366,
  55, 368,
  55, 371,
  55, 373,
  55, 374,
  55, 376,
  55, 380,
  55, 383,
  55, 384,
  55, 388,
  55, 393,
  55, 395,
  55, 398,
  55, 399,
  56, 57,
  56, 59,
  56, 63,
  56, 66,
  56, 68,
  56, 70,
  56, 71,
  56, 74,
  56, 78,
  56, 80,
  56, 82,
  56, 83,
  56, 89,
  56, 90,
  56, 93,
  56, 95,
  56, 96,
  56, 100,
  56, 102,
  56, 103,
  56, 104,
  56, 105,
  56, 106,
  56, 107,
  56, 108,
  56, 109,
  56, 113,
  56, 114,
  56, 115,
  56, 116,
  56, 119,
  56, 121,
  56, 122,
  56, 125,
  56, 126,
  56, 128,
  56, 129,
  56, 130,
  56, 131,
  56, 132,
  56, 134,
  56, 135,
  56, 137,
  56, 139,
  56, 140,
  56, 143,
  56, 144,
  56, 145,
  56, 146,
  56, 147,
  56, 149,
  56, 150,
  56, 151,
  56, 153,
  56, 154,
  56, 155,
  56, 156,
  56, 157,
  56, 162,
  56, 163,
  56, 166,
  56, 167,
  56, 168,
  56, 169,
  56, 171,
  56, 172,
  56, 173,
  56, 176,
  56, 179,
  56, 182,
  56, 183,
  56, 185,
  56, 190,
  56, 191,
  56, 192,
  56, 194,
  56, 196,
  56, 199,
  56, 201,
  56, 203,
  56, 204,
  56, 205,
  56, 207,
  56, 208,
  56, 211,
  56, 212,
  56, 219,
  56, 220,
  56, 221,
  56, 222,
  56, 223,
  56, 224,
  56, 225,
  56, 228,
  56, 229,
  56, 230,
  56, 235,
  56, 237,
  56, 238,
  56, 240,
  56, 246,
  56, 247,
  56, 248,
  56, 249,
  56, 250,
  56, 251,
  56, 252,
  56, 254,
  56, 256,
  56, 257,
  56, 258,
  56, 259,
  56, 260,
  56, 261,
  56, 264,
  56, 265,
  56, 266,
  56, 269,
  56, 270,
  56, 271,
  56, 272,
  56, 273,
  56, 276,
  56, 278,
  56, 279,
  56, 280,
  56, 289,
  56, 290,
  56, 293,
  56, 294,
  56, 295,
  56, 296,
  56, 304,
  56, 305,
  56, 308,
  56, 309,
  56, 310,
  56, 311,
  56, 313,
  56, 314,
  56, 316,
  56, 317,
  56, 318,
  56, 319,
  56, 322,
  56, 323,
  56, 324,
  56, 326,
  56, 327,
  56, 328,
  56, 330,
  56, 331,
  56, 332,
  56, 334,
  56, 335,
  56, 336,
  56, 338,
  56, 339,
  56, 341,
  56, 342,
  56, 344,
  56, 349,
  56, 352,
  56, 354,
  56, 360,
  56, 362,
  56, 363,
  56, 364,
  56, 366,
  56, 367,
  56, 368,
  56, 370,
  56, 371,
  56, 372,
  56, 377,
  56, 378,
  56, 381,
  56, 382,
  56, 384,
  56, 386,
  56, 389,
  56, 394,
  56, 397,
  56, 398,
  56, 399,
  57, 58,
  57, 59,
  57, 64,
  57, 73,
  57, 74,
  57, 77,
  57, 79,
  57, 81,
  57, 83,
  57, 85,
  57, 88,
  57, 89,
  57, 94,
  57, 97,
  57, 98,
  57, 99,
  57, 102,
  57, 105,
  57, 107,
  57, 108,
  57, 114,
  57, 115,
  57, 116,
  57, 118,
  57, 120,
  57, 121,
  57, 124,
  57, 126,
  57, 132,
  57, 133,
  57, 134,
  57, 135,
  57, 137,
  57, 138,
  57, 140,
  57, 142,
  57, 144,
  57, 148,
  57, 153,
  57, 154,
  57, 155,
  57, 157,
  57, 158,
  57, 160,
  57, 162,
  57, 165,
  57, 166,
  57, 171,
  57, 172,
  57, 173,
  57, 177,
  57, 181,
  57, 182,
  57, 183,
  57, 189,
  57, 190,
  57, 191,
  57, 193,
  57, 196,
  57, 198,
  57, 202,
  57, 205,
  57, 206,
  57, 209,
  57, 210,
  57, 211,
  57, 214,
  57, 215,
  57, 217,
  57, 218,
  57, 219,
  57, 220,
  57, 221,
  57, 222,
  57, 223,
  57, 224,
  57, 225,
  57, 227,
  57, 229,
  57, 234,
  57, 235,
  57, 239,
  57, 242,
  57, 243,
  57, 246,
  57, 247,
  57, 248,
  57, 249,
  57, 250,
  57, 251,
  57, 253,
  57, 256,
  57, 257,
  57, 259,
  57, 261,
  57, 263,
  57, 264,
  57, 266,
  57, 268,
  57, 270,
  57, 277,
  57, 278,
  57, 280,
  57, 283,
  57, 288,
  57, 290,
  57, 293,
  57, 294,
  57, 296,
  57, 297,
  57, 298,
  57, 300,
  57, 302,
  57, 303,
  57, 304,
  57, 306,
  57, 308,
  57, 309,
  57, 313,
  57, 314,
  57, 315,
  57, 316,
  57, 320,
  57, 325,
  57, 326,
  57, 328,
  57, 333,
  57, 337,
  57, 345,
  57, 349,
  57, 350,
  57, 351,
  57, 353,
  57, 361,
  57, 362,
  57, 364,
  57, 365,
  57, 367,
  57, 370,
  57, 371,
  57, 372,
  57, 373,
  57, 374,
  57, 376,
  57, 378,
  57, 380,
  57, 381,
  57, 383,
  57, 385,
  57, 388,
  57, 389,
  57, 390,
  57, 393,
  57, 394,
  57, 395,
  57, 396,
  57, 397,
  57, 398,
  57, 400,
  58, 60,
  58, 61,
  58, 62,
  58, 63,
  58, 65,
  58, 67,
  58, 70,
  58, 73,
  58, 75,
  58, 76,
  58, 77,
  58, 78,
  58, 79,
  58, 82,
  58, 85,
  58, 86,
  58, 87,
  58, 88,
  58, 90,
  58, 93,
  58, 95,
  58, 96,
  58, 102,
  58, 103,
  58, 104,
  58, 110,
  58, 111,
  58, 113,
  58, 115,
  58, 117,
  58, 118,
  58, 126,
  58, 129,
  58, 130,
  58, 134,
  58, 137,
  58, 138,
  58, 141,
  58, 144,
  58, 145,
  58, 146,
  58, 148,
  58, 149,
  58, 152,
  58, 153,
  58, 154,
  58, 155,
  58, 162,
  58, 164,
  58, 171,
  58, 174,
  58, 176,
  58, 177,
  58, 178,
  58, 179,
  58, 180,
  58, 181,
  58, 187,
  58, 189,
  58, 190,
  58, 191,
  58, 192,
  58, 193,
  58, 195,
  58, 196,
  58, 200,
  58, 209,
  58, 210,
  58, 215,
  58, 216,
  58, 218,
  58, 220,
  58, 221,
  58, 224,
  58, 225,
  58, 226,
  58, 229,
  58, 230,
  58, 231,
  58, 232,
  58, 233,
  58, 234,
  58, 235,
  58, 237,
  58, 238,
  58, 240,
  58, 241,
  58, 244,
  58, 246,
  58, 248,
  58, 251,
  58, 254,
  58, 258,
  58, 259,
  58, 260,
  58, 261,
  58, 265,
  58, 266,
  58, 267,
  58, 269,
  58, 271,
  58, 273,
  58, 274,
  58, 276,
  58, 277,
  58, 278,
  58, 282,
  58, 285,
  58, 290,
  58, 292,
  58, 297,
  58, 298,
  58, 302,
  58, 303,
  58, 304,
  58, 305,
  58, 306,
  58, 309,
  58, 310,
  58, 316,
  58, 320,
  58, 321,
  58, 322,
  58, 324,
  58, 327,
  58, 333,
  58, 334,
  58, 335,
  58, 337,
  58, 345,
  58, 346,
  58, 348,
  58, 350,
  58, 351,
  58, 355,
  58, 356,
  58, 358,
  58, 360,
  58, 363,
  58, 368,
  58, 369,
  58, 370,
  58, 374,
  58, 379,
  58, 381,
  58, 382,
  58, 383,
  58, 385,
  58, 386,
  58, 387,
  58, 389,
  58, 392,
  58, 393,
  58, 395,
  58, 397,
  58, 398,
  59, 60,
  59, 61,
  59, 65,
  59, 68,
  59, 72,
  59, 73,
  59, 74,
  59, 76,
  59, 78,
  59, 81,
  59, 82,
  59, 83,
  59, 85,
  59, 91,
  59, 93,
  59, 94,
  59, 95,
  59, 96,
  59, 100,
  59, 101,
  59, 103,
  59, 104,
  59, 105,
  59, 106,
  59, 107,
  59, 108,
  59, 110,
  59, 112,
  59, 114,
  59, 115,
  59, 118,
  59, 120,
  59, 122,
  59, 123,
  59, 124,
  59, 125,
  59, 127,
  59, 131,
  59, 133,
  59, 136,
  59, 139,
  59, 144,
  59, 145,
  59, 147,
  59, 149,
  59, 151,
  59, 152,
  59, 153,
  59, 156,
  59, 158,
  59, 161,
  59, 164,
  59, 165,
  59, 167,
  59, 168,
  59, 172,
  59, 173,
  59, 174,
  59, 176,
  59, 177,
  59, 181,
  59, 182,
  59, 183,
  59, 187,
  59, 188,
  59, 191,
  59, 194,
  59, 195,
  59, 200,
  59, 201,
  59, 203,
  59, 204,
  59, 205,
  59, 206,
  59, 209,
  59, 211,
  59, 213,
  59, 214,
  59, 215,
  59, 216,
  59, 218,
  59, 219,
  59, 221,
  59, 223,
  59, 226,
  59, 227,
  59, 228,
  59, 230,
  59, 232,
  59, 233,
  59, 234,
  59, 236,
  59, 237,
  59, 238,
  59, 240,
  59, 241,
  59, 243,
  59, 244,
  59, 245,
  59, 246,
  59, 248,
  59, 251,
  59, 254,
  59, 255,
  59, 259,
  59, 267,
  59, 268,
  59, 270,
  59, 274,
  59, 276,
  59, 277,
  59, 278,
  59, 279,
  59, 282,
  59, 283,
  59, 284,
  59, 285,
  59, 287,
  59, 288,
  59, 290,
  59, 291,
  59, 293,
  59, 294,
  59, 295,
  59, 297,
  59, 299,
  59, 300,
  59, 302,
  59, 305,
  59, 306,
  59, 307,
  59, 308,
  59, 309,
  59, 312,
  59, 313,
  59, 317,
  59, 319,
  59, 321,
  59, 325,
  59, 328,
  59, 330,
  59, 331,
  59, 333,
  59, 336,
  59, 338,
  59, 345,
  59, 347,
  59, 348,
  59, 349,
  59, 350,
  59, 351,
  59, 354,
  59, 356,
  59, 358,
  59, 359,
  59, 364,
  59, 365,
  59, 369,
  59, 372,
  59, 374,
  59, 375,
  59, 377,
  59, 383,
  59, 384,
  59, 387,
  59, 390,
  59, 392,
  59, 393,
  59, 394,
  59, 395,
  59, 396,
  59, 397,
  59, 400,
  60, 61,
  60, 64,
  60, 68,
  60, 72,
  60, 73,
  60, 76,
  60, 77,
  60, 79,
  60, 80,
  60, 81,
  60, 83,
  60, 84,
  60, 85,
  60, 88,
  60, 89,
  60, 91,
  60, 93,
  60, 94,
  60, 96,
  60, 98,
  60, 99,
  60, 101,
  60, 105,
  60, 106,
  60, 109,
  60, 113,
  60, 114,
  60, 118,
  60, 120,
  60, 121,
  60, 122,
  60, 123,
  60, 124,
  60, 126,
  60, 129,
  60, 130,
  60, 135,
  60, 136,
  60, 140,
  60, 141,
  60, 142,
  60, 146,
  60, 149,
  60, 151,
  60, 152,
  60, 153,
  60, 155,
  60, 156,
  60, 157,
  60, 158,
  60, 160,
  60, 163,
  60, 164,
  60, 165,
  60, 166,
  60, 167,
  60, 168,
  60, 169,
  60, 172,
  60, 179,
  60, 180,
  60, 182,
  60, 184,
  60, 187,
  60, 188,
  60, 192,
  60, 198,
  60, 200,
  60, 202,
  60, 204,
  60, 211,
  60, 221,
  60, 222,
  60, 223,
  60, 225,
  60, 229,
  60, 230,
  60, 232,
  60, 235,
  60, 238,
  60, 244,
  60, 245,
  60, 247,
  60, 251,
  60, 252,
  60, 260,
  60, 262,
  60, 264,
  60, 266,
  60, 267,
  60, 272,
  60, 275,
  60, 277,
  60, 278,
  60, 283,
  60, 285,
  60, 288,
  60, 291,
  60, 292,
  60, 293,
  60, 295,
  60, 296,
  60, 298,
  60, 299,
  60, 300,
  60, 301,
  60, 302,
  60, 308,
  60, 314,
  60, 315,
  60, 316,
  60, 318,
  60, 320,
  60, 321,
  60, 322,
  60, 323,
  60, 324,
  60, 326,
  60, 328,
  60, 329,
  60, 332,
  60, 337,
  60, 338,
  60, 339,
  60, 342,
  60, 344,
  60, 347,
  60, 348,
  60, 349,
  60, 351,
  60, 356,
  60, 357,
  60, 358,
  60, 361,
  60, 363,
  60, 364,
  60, 365,
  60, 369,
  60, 371,
  60, 372,
  60, 377,
  60, 383,
  60, 384,
  60, 385,
  60, 394,
  60, 396,
  60, 397,
  60, 399,
  60, 400,
  61, 62,
  61, 64,
  61, 65,
  61, 67,
  61, 69,
  61, 70,
  61, 71,
  61, 72,
  61, 73,
  61, 74,
  61, 75,
  61, 78,
  61, 79,
  61, 81,
  61, 82,
  61, 85,
  61, 87,
  61, 88,
  61, 90,
  61, 93,
  61, 94,
  61, 96,
  61, 99,
  61, 100,
  61, 101,
  61, 104,
  61, 105,
  61, 107,
  61, 109,
  61, 110,
  61, 111,
  61, 112,
  61, 116,
  61, 121,
  61, 122,
  61, 123,
  61, 127,
  61, 128,
  61, 129,
  61, 132,
  61, 133,
  61, 135,
  61, 137,
  61, 138,
  61, 139,
  61, 145,
  61, 146,
  61, 148,
  61, 151,
  61, 153,
  61, 156,
  61, 157,
  61, 158,
  61, 159,
  61, 161,
  61, 162,
  61, 163,
  61, 164,
  61, 165,
  61, 166,
  61, 167,
  61, 168,
  61, 169,
  61, 174,
  61, 175,
  61, 178,
  61, 180,
  61, 181,
  61, 184,
  61, 187,
  61, 188,
  61, 191,
  61, 192,
  61, 193,
  61, 194,
  61, 195,
  61, 198,
  61, 202,
  61, 203,
  61, 207,
  61, 208,
  61, 209,
  61, 211,
  61, 212,
  61, 215,
  61, 216,
  61, 217,
  61, 218,
  61, 221,
  61, 222,
  61, 223,
  61, 226,
  61, 227,
  61, 229,
  61, 230,
  61, 237,
  61, 240,
  61, 243,
  61, 244,
  61, 245,
  61, 247,
  61, 248,
  61, 249,
  61, 250,
  61, 252,
  61, 258,
  61, 262,
  61, 263,
  61, 265,
  61, 267,
  61, 268,
  61, 271,
  61, 276,
  61, 277,
  61, 278,
  61, 280,
  61, 281,
  61, 282,
  61, 283,
  61, 284,
  61, 285,
  61, 286,
  61, 287,
  61, 288,
  61, 289,
  61, 291,
  61, 292,
  61, 293,
  61, 294,
  61, 296,
  61, 297,
  61, 298,
  61, 299,
  61, 307,
  61, 309,
  61, 310,
  61, 311,
  61, 312,
  61, 317,
  61, 319,
  61, 320,
  61, 321,
  61, 323,
  61, 324,
  61, 325,
  61, 327,
  61, 328,
  61, 330,
  61, 331,
  61, 336,
  61, 337,
  61, 338,
  61, 339,
  61, 341,
  61, 342,
  61, 343,
  61, 344,
  61, 346,
  61, 347,
  61, 348,
  61, 353,
  61, 354,
  61, 356,
  61, 357,
  61, 359,
  61, 360,
  61, 361,
  61, 362,
  61, 368,
  61, 369,
  61, 370,
  61, 371,
  61, 375,
  61, 376,
  61, 378,
  61, 380,
  61, 382,
  61, 384,
  61, 385,
  61, 389,
  61, 390,
  61, 392,
  61, 393,
  61, 394,
  61, 395,
  61, 398,
  62, 63,
  62, 64,
  62, 66,
  62, 67,
  62, 68,
  62, 69,
  62, 70,
  62, 71,
  62, 74,
  62, 75,
  62, 76,
  62, 78,
  62, 80,
  62, 81,
  62, 84,
  62, 88,
  62, 89,
  62, 94,
  62, 96,
  62, 100,
  62, 102,
  62, 103,
  62, 104,
  62, 107,
  62, 111,
  62, 112,
  62, 113,
  62, 116,
  62, 118,
  62, 120,
  62, 121,
  62, 123,
  62, 124,
  62, 127,
  62, 130,
  62, 131,
  62, 132,
  62, 133,
  62, 134,
  62, 136,
  62, 137,
  62, 139,
  62, 140,
  62, 141,
  62, 144,
  62, 145,
  62, 146,
  62, 148,
  62, 149,
  62, 150,
  62, 152,
  62, 155,
  62, 157,
  62, 158,
  62, 159,
  62, 160,
  62, 162,
  62, 163,
  62, 168,
  62, 171,
  62, 173,
  62, 174,
  62, 176,
  62, 177,
  62, 178,
  62, 180,
  62, 181,
  62, 183,
  62, 184,
  62, 185,
  62, 186,
  62, 188,
  62, 190,
  62, 195,
  62, 196,
  62, 199,
  62, 201,
  62, 203,
  62, 204,
  62, 207,
  62, 208,
  62, 209,
  62, 210,
  62, 211,
  62, 214,
  62, 215,
  62, 216,
  62, 217,
  62, 222,
  62, 224,
  62, 226,
  62, 227,
  62, 228,
  62, 229,
  62, 231,
  62, 234,
  62, 236,
  62, 237,
  62, 238,
  62, 240,
  62, 242,
  62, 247,
  62, 249,
  62, 250,
  62, 252,
  62, 257,
  62, 259,
  62, 261,
  62, 262,
  62, 263,
  62, 264,
  62, 265,
  62, 266,
  62, 268,
  62, 269,
  62, 270,
  62, 271,
  62, 274,
  62, 277,
  62, 278,
  62, 279,
  62, 280,
  62, 281,
  62, 282,
  62, 283,
  62, 287,
  62, 288,
  62, 289,
  62, 291,
  62, 292,
  62, 293,
  62, 294,
  62, 295,
  62, 298,
  62, 300,
  62, 302,
  62, 304,
  62, 305,
  62, 307,
  62, 308,
  62, 309,
  62, 313,
  62, 314,
  62, 317,
  62, 318,
  62, 319,
  62, 320,
  62, 326,
  62, 327,
  62, 330,
  62, 332,
  62, 333,
  62, 339,
  62, 347,
  62, 349,
  62, 350,
  62, 351,
  62, 352,
  62, 353,
  62, 354,
  62, 360,
  62, 361,
  62, 363,
  62, 365,
  62, 368,
  62, 369,
  62, 370,
  62, 372,
  62, 373,
  62, 374,
  62, 377,
  62, 379,
  62, 383,
  62, 385,
  62, 388,
  62, 391,
  62, 395,
  62, 396,
  62, 397,
  62, 399,
  63, 67,
  63, 68,
  63, 69,
  63, 70,
  63, 71,
  63, 72,
  63, 73,
  63, 74,
  63, 76,
  63, 78,
  63, 79,
  63, 81,
  63, 83,
  63, 86,
  63, 87,
  63, 88,
  63, 89,
  63, 91,
  63, 92,
  63, 93,
  63, 94,
  63, 96,
  63, 99,
  63, 104,
  63, 106,
  63, 107,
  63, 109,
  63, 110,
  63, 112,
  63, 115,
  63, 117,
  63, 118,
  63, 122,
  63, 123,
  63, 124,
  63, 125,
  63, 128,
  63, 129,
  63, 130,
  63, 131,
  63, 132,
  63, 136,
  63, 139,
  63, 140,
  63, 142,
  63, 144,
  63, 146,
  63, 151,
  63, 152,
  63, 153,
  63, 154,
  63, 155,
  63, 156,
  63, 158,
  63, 161,
  63, 163,
  63, 164,
  63, 166,
  63, 167,
  63, 169,
  63, 172,
  63, 177,
  63, 179,
  63, 181,
  63, 182,
  63, 183,
  63, 185,
  63, 186,
  63, 189,
  63, 190,
  63, 195,
  63, 196,
  63, 197,
  63, 198,
  63, 199,
  63, 200,
  63, 202,
  63, 205,
  63, 207,
  63, 209,
  63, 210,
  63, 212,
  63, 214,
  63, 215,
  63, 218,
  63, 222,
  63, 223,
  63, 224,
  63, 226,
  63, 227,
  63, 229,
  63, 231,
  63, 234,
  63, 235,
  63, 240,
  63, 241,
  63, 242,
  63, 244,
  63, 246,
  63, 247,
  63, 253,
  63, 254,
  63, 255,
  63, 260,
  63, 262,
  63, 264,
  63, 265,
  63, 268,
  63, 269,
  63, 272,
  63, 274,
  63, 275,
  63, 276,
  63, 277,
  63, 279,
  63, 280,
  63, 282,
  63, 283,
  63, 284,
  63, 286,
  63, 287,
  63, 288,
  63, 289,
  63, 291,
  63, 294,
  63, 296,
  63, 297,
  63, 298,
  63, 300,
  63, 301,
  63, 303,
  63, 304,
  63, 307,
  63, 311,
  63, 312,
  63, 314,
  63, 315,
  63, 316,
  63, 317,
  63, 318,
  63, 322,
  63, 324,
  63, 326,
  63, 328,
  63, 332,
  63, 335,
  63, 338,
  63, 339,
  63, 340,
  63, 343,
  63, 344,
  63, 345,
  63, 346,
  63, 347,
  63, 349,
  63, 355,
  63, 356,
  63, 359,
  63, 361,
  63, 363,
  63, 370,
  63, 374,
  63, 375,
  63, 376,
  63, 377,
  63, 381,
  63, 382,
  63, 383,
  63, 385,
  63, 387,
  63, 390,
  63, 391,
  63, 393,
  63, 395,
  63, 396,
  63, 399,
  64, 65,
  64, 66,
  64, 67,
  64, 70,
  64, 71,
  64, 73,
  64, 78,
  64, 79,
  64, 80,
  64, 81,
  64, 87,
  64, 90,
  64, 91,
  64, 95,
  64, 97,
  64, 99,
  64, 100,
  64, 102,
  64, 103,
  64, 104,
  64, 110,
  64, 112,
  64, 114,
  64, 117,
  64, 118,
  64, 121,
  64, 126,
  64, 128,
  64, 130,
  64, 132,
  64, 133,
  64, 136,
  64, 143,
  64, 151,
  64, 154,
  64, 157,
  64, 158,
  64, 160,
  64, 162,
  64, 164,
  64, 165,
  64, 167,
  64, 169,
  64, 171,
  64, 173,
  64, 174,
  64, 175,
  64, 176,
  64, 179,
  64, 180,
  64, 183,
  64, 185,
  64, 186,
  64, 191,
  64, 193,
  64, 194,
  64, 199,
  64, 200,
  64, 202,
  64, 203,
  64, 205,
  64, 207,
  64, 208,
  64, 211,
  64, 213,
  64, 216,
  64, 219,
  64, 221,
  64, 223,
  64, 224,
  64, 225,
  64, 226,
  64, 227,
  64, 232,
  64, 234,
  64, 237,
  64, 239,
  64, 240,
  64, 243,
  64, 245,
  64, 246,
  64, 248,
  64, 251,
  64, 252,
  64, 253,
  64, 254,
  64, 257,
  64, 263,
  64, 264,
  64, 265,
  64, 266,
  64, 267,
  64, 268,
  64, 269,
  64, 272,
  64, 274,
  64, 275,
  64, 279,
  64, 280,
  64, 283,
  64, 285,
  64, 288,
  64, 292,
  64, 296,
  64, 297,
  64, 298,
  64, 300,
  64, 301,
  64, 306,
  64, 307,
  64, 308,
  64, 309,
  64, 310,
  64, 312,
  64, 313,
  64, 314,
  64, 315,
  64, 320,
  64, 321,
  64, 322,
  64, 324,
  64, 327,
  64, 330,
  64, 331,
  64, 333,
  64, 335,
  64, 336,
  64, 339,
  64, 342,
  64, 345,
  64, 346,
  64, 348,
  64, 350,
  64, 352,
  64, 354,
  64, 355,
  64, 356,
  64, 357,
  64, 358,
  64, 359,
  64, 361,
  64, 362,
  64, 365,
  64, 367,
  64, 368,
  64, 370,
  64, 372,
  64, 374,
  64, 377,
  64, 382,
  64, 383,
  64, 385,
  64, 386,
  64, 387,
  64, 388,
  64, 390,
  64, 391,
  64, 394,
  64, 396,
  64, 398,
  64, 399,
  64, 400,
  65, 68,
  65, 69,
  65, 70,
  65, 73,
  65, 74,
  65, 75,
  65, 76,
  65, 86,
  65, 87,
  65, 90,
  65, 92,
  65, 93,
  65, 95,
  65, 97,
  65, 99,
  65, 100,
  65, 101,
  65, 102,
  65, 103,
  65, 105,
  65, 106,
  65, 108,
  65, 109,
  65, 110,
  65, 111,
  65, 113,
  65, 114,
  65, 119,
  65, 120,
  65, 121,
  65, 123,
  65, 124,
  65, 125,
  65, 127,
  65, 129,
  65, 132,
  65, 135,
  65, 136,
  65, 140,
  65, 141,
  65, 142,
  65, 143,
  65, 144,
  65, 146,
  65, 149,
  65, 151,
  65, 154,
  65, 155,
  65, 157,
  65, 159,
  65, 160,
  65, 162,
  65, 163,
  65, 165,
  65, 168,
  65, 169,
  65, 170,
  65, 176,
  65, 177,
  65, 179,
  65, 180,
  65, 182,
  65, 183,
  65, 184,
  65, 185,
  65, 187,
  65, 188,
  65, 189,
  65, 190,
  65, 191,
  65, 192,
  65, 197,
  65, 202,
  65, 204,
  65, 206,
  65, 209,
  65, 210,
  65, 213,
  65, 215,
  65, 217,
  65, 218,
  65, 221,
  65, 222,
  65, 223,
  65, 224,
  65, 225,
  65, 226,
  65, 227,
  65, 228,
  65, 229,
  65, 231,
  65, 236,
  65, 240,
  65, 245,
  65, 251,
  65, 257,
  65, 258,
  65, 259,
  65, 263,
  65, 266,
  65, 268,
  65, 269,
  65, 270,
  65, 274,
  65, 278,
  65, 280,
  65, 281,
  65, 282,
  65, 283,
  65, 286,
  65, 287,
  65, 288,
  65, 291,
  65, 299,
  65, 300,
  65, 301,
  65, 302,
  65, 303,
  65, 304,
  65, 305,
  65, 306,
  65, 307,
  65, 309,
  65, 310,
  65, 312,
  65, 313,
  65, 314,
  65, 317,
  65, 318,
  65, 319,
  65, 320,
  65, 321,
  65, 322,
  65, 324,
  65, 325,
  65, 326,
  65, 327,
  65, 328,
  65, 329,
  65, 330,
  65, 332,
  65, 334,
  65, 337,
  65, 338,
  65, 340,
  65, 341,
  65, 342,
  65, 348,
  65, 349,
  65, 350,
  65, 352,
  65, 353,
  65, 355,
  65, 356,
  65, 358,
  65, 359,
  65, 361,
  65, 362,
  65, 365,
  65, 368,
  65, 371,
  65, 373,
  65, 382,
  65, 384,
  65, 387,
  65, 388,
  65, 390,
  65, 391,
  65, 394,
  65, 396,
  66, 67,
  66, 68,
  66, 69,
  66, 70,
  66, 71,
  66, 72,
  66, 73,
  66, 75,
  66, 76,
  66, 77,
  66, 78,
  66, 81,
  66, 82,
  66, 83,
  66, 87,
  66, 88,
  66, 89,
  66, 91,
  66, 93,
  66, 94,
  66, 95,
  66, 96,
  66, 97,
  66, 98,
  66, 102,
  66, 104,
  66, 105,
  66, 107,
  66, 111,
  66, 112,
  66, 115,
  66, 116,
  66, 117,
  66, 124,
  66, 126,
  66, 127,
  66, 130,
  66, 133,
  66, 134,
  66, 136,
  66, 137,
  66, 138,
  66, 139,
  66, 140,
  66, 142,
  66, 146,
  66, 148,
  66, 149,
  66, 151,
  66, 153,
  66, 154,
  66, 155,
  66, 158,
  66, 160,
  66, 161,
  66, 164,
  66, 166,
  66, 167,
  66, 168,
  66, 169,
  66, 171,
  66, 172,
  66, 173,
  66, 174,
  66, 175,
  66, 176,
  66, 177,
  66, 178,
  66, 180,
  66, 181,
  66, 182,
  66, 183,
  66, 187,
  66, 188,
  66, 189,
  66, 191,
  66, 192,
  66, 196,
  66, 198,
  66, 199,
  66, 202,
  66, 203,
  66, 205,
  66, 206,
  66, 207,
  66, 209,
  66, 210,
  66, 213,
  66, 214,
  66, 216,
  66, 218,
  66, 220,
  66, 221,
  66, 222,
  66, 224,
  66, 225,
  66, 226,
  66, 227,
  66, 228,
  66, 229,
  66, 232,
  66, 235,
  66, 238,
  66, 239,
  66, 240,
  66, 242,
  66, 243,
  66, 245,
  66, 248,
  66, 251,
  66, 254,
  66, 255,
  66, 256,
  66, 257,
  66, 258,
  66, 260,
  66, 262,
  66, 263,
  66, 266,
  66, 267,
  66, 268,
  66, 271,
  66, 272,
  66, 274,
  66, 275,
  66, 277,
  66, 279,
  66, 280,
  66, 281,
  66, 282,
  66, 284,
  66, 285,
  66, 286,
  66, 287,
  66, 288,
  66, 289,
  66, 290,
  66, 291,
  66, 293,
  66, 294,
  66, 295,
  66, 297,
  66, 299,
  66, 300,
  66, 304,
  66, 306,
  66, 307,
  66, 308,
  66, 309,
  66, 315,
  66, 317,
  66, 318,
  66, 321,
  66, 324,
  66, 326,
  66, 327,
  66, 329,
  66, 331,
  66, 333,
  66, 336,
  66, 337,
  66, 341,
  66, 343,
  66, 344,
  66, 347,
  66, 349,
  66, 350,
  66, 351,
  66, 354,
  66, 355,
  66, 356,
  66, 357,
  66, 358,
  66, 359,
  66, 362,
  66, 363,
  66, 364,
  66, 365,
  66, 366,
  66, 367,
  66, 368,
  66, 374,
  66, 375,
  66, 377,
  66, 380,
  66, 382,
  66, 384,
  66, 385,
  66, 387,
  66, 390,
  66, 391,
  66, 392,
  66, 395,
  66, 396,
  66, 397,
  66, 400,
  67, 68,
  67, 74,
  67, 75,
  67, 85,
  67, 87,
  67, 91,
  67, 94,
  67, 95,
  67, 97,
  67, 101,
  67, 105,
  67, 106,
  67, 108,
  67, 109,
  67, 114,
  67, 115,
  67, 116,
  67, 117,
  67, 118,
  67, 120,
  67, 121,
  67, 123,
  67, 125,
  67, 130,
  67, 133,
  67, 134,
  67, 135,
  67, 136,
  67, 137,
  67, 138,
  67, 139,
  67, 142,
  67, 143,
  67, 144,
  67, 145,
  67, 146,
  67, 148,
  67, 149,
  67, 150,
  67, 152,
  67, 153,
  67, 154,
  67, 156,
  67, 161,
  67, 162,
  67, 163,
  67, 164,
  67, 166,
  67, 167,
  67, 172,
  67, 176,
  67, 177,
  67, 184,
  67, 187,
  67, 190,
  67, 191,
  67, 192,
  67, 193,
  67, 197,
  67, 198,
  67, 199,
  67, 201,
  67, 203,
  67, 207,
  67, 208,
  67, 209,
  67, 210,
  67, 213,
  67, 215,
  67, 216,
  67, 217,
  67, 218,
  67, 220,
  67, 221,
  67, 223,
  67, 226,
  67, 227,
  67, 228,
  67, 232,
  67, 234,
  67, 235,
  67, 237,
  67, 238,
  67, 241,
  67, 244,
  67, 247,
  67, 252,
  67, 253,
  67, 256,
  67, 258,
  67, 259,
  67, 263,
  67, 264,
  67, 265,
  67, 267,
  67, 269,
  67, 274,
  67, 275,
  67, 276,
  67, 277,
  67, 278,
  67, 279,
  67, 284,
  67, 285,
  67, 289,
  67, 290,
  67, 292,
  67, 293,
  67, 295,
  67, 297,
  67, 298,
  67, 301,
  67, 304,
  67, 308,
  67, 310,
  67, 311,
  67, 312,
  67, 314,
  67, 316,
  67, 318,
  67, 319,
  67, 320,
  67, 323,
  67, 325,
  67, 326,
  67, 327,
  67, 328,
  67, 330,
  67, 334,
  67, 335,
  67, 339,
  67, 341,
  67, 342,
  67, 348,
  67, 350,
  67, 351,
  67, 356,
  67, 357,
  67, 360,
  67, 362,
  67, 364,
  67, 366,
  67, 368,
  67, 371,
  67, 375,
  67, 377,
  67, 378,
  67, 381,
  67, 383,
  67, 385,
  67, 386,
  67, 388,
  67, 392,
  67, 393,
  67, 395,
  67, 397,
  67, 398,
  68, 70,
  68, 73,
  68, 74,
  68, 76,
  68, 77,
  68, 78,
  68, 80,
  68, 81,
  68, 83,
  68, 87,
  68, 91,
  68, 98,
  68, 102,
  68, 106,
  68, 109,
  68, 111,
  68, 112,
  68, 116,
  68, 120,
  68, 121,
  68, 122,
  68, 124,
  68, 126,
  68, 130,
  68, 131,
  68, 132,
  68, 133,
  68, 135,
  68, 136,
  68, 138,
  68, 140,
  68, 142,
  68, 143,
  68, 145,
  68, 147,
  68, 148,
  68, 150,
  68, 151,
  68, 153,
  68, 155,
  68, 156,
  68, 157,
  68, 159,
  68, 160,
  68, 163,
  68, 164,
  68, 165,
  68, 169,
  68, 175,
  68, 176,
  68, 183,
  68, 184,
  68, 186,
  68, 187,
  68, 188,
  68, 191,
  68, 192,
  68, 194,
  68, 195,
  68, 199,
  68, 202,
  68, 204,
  68, 206,
  68, 211,
  68, 214,
  68, 215,
  68, 217,
  68, 220,
  68, 223,
  68, 225,
  68, 226,
  68, 227,
  68, 229,
  68, 231,
  68, 236,
  68, 240,
  68, 241,
  68, 244,
  68, 245,
  68, 247,
  68, 248,
  68, 249,
  68, 250,
  68, 251,
  68, 252,
  68, 254,
  68, 255,
  68, 258,
  68, 259,
  68, 260,
  68, 261,
  68, 262,
  68, 264,
  68, 265,
  68, 266,
  68, 268,
  68, 270,
  68, 273,
  68, 275,
  68, 276,
  68, 277,
  68, 278,
  68, 279,
  68, 281,
  68, 282,
  68, 283,
  68, 285,
  68, 286,
  68, 287,
  68, 289,
  68, 291,
  68, 293,
  68, 295,
  68, 296,
  68, 299,
  68, 300,
  68, 301,
  68, 302,
  68, 303,
  68, 306,
  68, 311,
  68, 313,
  68, 315,
  68, 316,
  68, 320,
  68, 321,
  68, 322,
  68, 323,
  68, 325,
  68, 326,
  68, 328,
  68, 329,
  68, 330,
  68, 331,
  68, 332,
  68, 333,
  68, 334,
  68, 337,
  68, 338,
  68, 340,
  68, 341,
  68, 343,
  68, 344,
  68, 348,
  68, 349,
  68, 352,
  68, 353,
  68, 354,
  68, 356,
  68, 359,
  68, 361,
  68, 366,
  68, 367,
  68, 369,
  68, 375,
  68, 376,
  68, 378,
  68, 379,
  68, 380,
  68, 382,
  68, 385,
  68, 387,
  68, 388,
  68, 389,
  68, 392,
  68, 393,
  68, 394,
  68, 397,
  68, 399,
  68, 400,
  69, 73,
  69, 79,
  69, 81,
  69, 83,
  69, 84,
  69, 85,
  69, 86,
  69, 89,
  69, 90,
  69, 91,
  69, 94,
  69, 99,
  69, 101,
  69, 102,
  69, 103,
  69, 106,
  69, 108,
  69, 109,
  69, 123,
  69, 125,
  69, 128,
  69, 129,
  69, 130,
  69, 131,
  69, 135,
  69, 136,
  69, 137,
  69, 141,
  69, 144,
  69, 145,
  69, 148,
  69, 149,
  69, 153,
  69, 154,
  69, 157,
  69, 162,
  69, 164,
  69, 167,
  69, 169,
  69, 170,
  69, 173,
  69, 175,
  69, 176,
  69, 177,
  69, 179,
  69, 183,
  69, 186,
  69, 187,
  69, 189,
  69, 190,
  69, 193,
  69, 194,
  69, 196,
  69, 198,
  69, 202,
  69, 204,
  69, 205,
  69, 213,
  69, 214,
  69, 217,
  69, 223,
  69, 225,
  69, 226,
  69, 227,
  69, 229,
  69, 231,
  69, 233,
  69, 235,
  69, 236,
  69, 237,
  69, 242,
  69, 245,
  69, 250,
  69, 251,
  69, 253,
  69, 255,
  69, 258,
  69, 259,
  69, 260,
  69, 261,
  69, 263,
  69, 265,
  69, 266,
  69, 269,
  69, 270,
  69, 271,
  69, 272,
  69, 277,
  69, 279,
  69, 283,
  69, 287,
  69, 289,
  69, 290,
  69, 293,
  69, 295,
  69, 297,
  69, 301,
  69, 304,
  69, 305,
  69, 310,
  69, 311,
  69, 316,
  69, 317,
  69, 318,
  69, 321,
  69, 322,
  69, 324,
  69, 327,
  69, 328,
  69, 331,
  69, 333,
  69, 335,
  69, 336,
  69, 337,
  69, 339,
  69, 340,
  69, 344,
  69, 346,
  69, 348,
  69, 352,
  69, 353,
  69, 354,
  69, 356,
  69, 361,
  69, 364,
  69, 366,
  69, 367,
  69, 368,
  69, 371,
  69, 373,
  69, 374,
  69, 377,
  69, 379,
  69, 383,
  69, 384,
  69, 386,
  69, 389,
  69, 390,
  69, 393,
  69, 395,
  69, 396,
  69, 397,
  69, 398,
  69, 400,
  70, 73,
  70, 76,
  70, 78,
  70, 79,
  70, 80,
  70, 81,
  70, 83,
  70, 86,
  70, 88,
  70, 89,
  70, 90,
  70, 91,
  70, 93,
  70, 94,
  70, 95,
  70, 96,
  70, 97,
  70, 98,
  70, 99,
  70, 101,
  70, 102,
  70, 103,
  70, 104,
  70, 105,
  70, 108,
  70, 111,
  70, 112,
  70, 116,
  70, 119,
  70, 120,
  70, 123,
  70, 124,
  70, 125,
  70, 128,
  70, 129,
  70, 131,
  70, 132,
  70, 133,
  70, 134,
  70, 135,
  70, 137,
  70, 140,
  70, 144,
  70, 145,
  70, 147,
  70, 149,
  70, 150,
  70, 153,
  70, 154,
  70, 156,
  70, 157,
  70, 158,
  70, 160,
  70, 164,
  70, 165,
  70, 169,
  70, 170,
  70, 171,
  70, 172,
  70, 175,
  70, 176,
  70, 177,
  70, 178,
  70, 182,
  70, 185,
  70, 186,
  70, 189,
  70, 190,
  70, 192,
  70, 194,
  70, 198,
  70, 199,
  70, 207,
  70, 209,
  70, 211,
  70, 212,
  70, 213,
  70, 214,
  70, 215,
  70, 216,
  70, 218,
  70, 219,
  70, 222,
  70, 223,
  70, 225,
  70, 226,
  70, 227,
  70, 228,
  70, 229,
  70, 230,
  70, 231,
  70, 232,
  70, 233,
  70, 236,
  70, 237,
  70, 240,
  70, 242,
  70, 243,
  70, 249,
  70, 250,
  70, 251,
  70, 254,
  70, 255,
  70, 256,
  70, 258,
  70, 259,
  70, 261,
  70, 262,
  70, 263,
  70, 264,
  70, 266,
  70, 267,
  70, 268,
  70, 269,
  70, 270,
  70, 273,
  70, 284,
  70, 286,
  70, 291,
  70, 292,
  70, 293,
  70, 297,
  70, 298,
  70, 299,
  70, 302,
  70, 304,
  70, 305,
  70, 311,
  70, 315,
  70, 318,
  70, 319,
  70, 320,
  70, 321,
  70, 326,
  70, 328,
  70, 329,
  70, 331,
  70, 332,
  70, 336,
  70, 339,
  70, 341,
  70, 344,
  70, 347,
  70, 348,
  70, 349,
  70, 350,
  70, 351,
  70, 352,
  70, 353,
  70, 356,
  70, 360,
  70, 361,
  70, 362,
  70, 363,
  70, 367,
  70, 373,
  70, 374,
  70, 375,
  70, 377,
  70, 378,
  70, 379,
  70, 380,
  70, 381,
  70, 382,
  70, 383,
  70, 386,
  70, 390,
  70, 395,
  70, 397,
  71, 72,
  71, 73,
  71, 75,
  71, 77,
  71, 78,
  71, 79,
  71, 80,
  71, 82,
  71, 84,
  71, 87,
  71, 88,
  71, 91,
  71, 92,
  71, 94,
  71, 95,
  71, 97,
  71, 99,
  71, 100,
  71, 101,
  71, 103,
  71, 104,
  71, 109,
  71, 112,
  71, 113,
  71, 114,
  71, 115,
  71, 116,
  71, 117,
  71, 118,
  71, 119,
  71, 120,
  71, 124,
  71, 125,
  71, 128,
  71, 129,
  71, 130,
  71, 131,
  71, 133,
  71, 134,
  71, 135,
  71, 136,
  71, 138,
  71, 139,
  71, 146,
  71, 147,
  71, 149,
  71, 150,
  71, 153,
  71, 160,
  71, 161,
  71, 163,
  71, 166,
  71, 173,
  71, 174,
  71, 175,
  71, 176,
  71, 177,
  71, 178,
  71, 179,
  71, 180,
  71, 181,
  71, 183,
  71, 187,
  71, 188,
  71, 190,
  71, 194,
  71, 196,
  71, 198,
  71, 203,
  71, 204,
  71, 206,
  71, 207,
  71, 208,
  71, 218,
  71, 220,
  71, 222,
  71, 225,
  71, 227,
  71, 228,
  71, 230,
  71, 232,
  71, 233,
  71, 234,
  71, 235,
  71, 238,
  71, 239,
  71, 240,
  71, 243,
  71, 244,
  71, 245,
  71, 246,
  71, 247,
  71, 249,
  71, 250,
  71, 255,
  71, 256,
  71, 258,
  71, 261,
  71, 262,
  71, 263,
  71, 265,
  71, 266,
  71, 267,
  71, 268,
  71, 269,
  71, 270,
  71, 271,
  71, 274,
  71, 277,
  71, 278,
  71, 281,
  71, 283,
  71, 285,
  71, 287,
  71, 288,
  71, 289,
  71, 290,
  71, 292,
  71, 294,
  71, 295,
  71, 303,
  71, 308,
  71, 309,
  71, 310,
  71, 311,
  71, 312,
  71, 313,
  71, 314,
  71, 315,
  71, 316,
  71, 317,
  71, 319,
  71, 320,
  71, 321,
  71, 322,
  71, 323,
  71, 325,
  71, 328,
  71, 331,
  71, 333,
  71, 342,
  71, 343,
  71, 347,
  71, 354,
  71, 355,
  71, 356,
  71, 357,
  71, 358,
  71, 359,
  71, 364,
  71, 365,
  71, 366,
  71, 367,
  71, 370,
  71, 372,
  71, 374,
  71, 375,
  71, 377,
  71, 378,
  71, 379,
  71, 380,
  71, 382,
  71, 383,
  71, 384,
  71, 386,
  71, 387,
  71, 388,
  71, 390,
  71, 391,
  71, 392,
  71, 393,
  71, 394,
  71, 396,
  71, 397,
  71, 398,
  71, 399,
  72, 74,
  72, 76,
  72, 79,
  72, 80,
  72, 81,
  72, 83,
  72, 84,
  72, 86,
  72, 88,
  72, 89,
  72, 90,
  72, 92,
  72, 94,
  72, 95,
  72, 98,
  72, 101,
  72, 103,
  72, 105,
  72, 108,
  72, 109,
  72, 110,
  72, 111,
  72, 114,
  72, 115,
  72, 116,
  72, 117,
  72, 121,
  72, 124,
  72, 126,
  72, 127,
  72, 128,
  72, 129,
  72, 130,
  72, 132,
  72, 136,
  72, 138,
  72, 139,
  72, 140,
  72, 144,
  72, 145,
  72, 147,
  72, 148,
  72, 151,
  72, 156,
  72, 157,
  72, 159,
  72, 162,
  72, 164,
  72, 166,
  72, 167,
  72, 168,
  72, 171,
  72, 173,
  72, 175,
  72, 177,
  72, 179,
  72, 180,
  72, 181,
  72, 183,
  72, 185,
  72, 186,
  72, 187,
  72, 193,
  72, 198,
  72, 200,
  72, 204,
  72, 206,
  72, 208,
  72, 210,
  72, 211,
  72, 212,
  72, 213,
  72, 215,
  72, 217,
  72, 218,
  72, 219,
  72, 220,
  72, 221,
  72, 222,
  72, 224,
  72, 225,
  72, 228,
  72, 230,
  72, 231,
  72, 235,
  72, 239,
  72, 240,
  72, 241,
  72, 249,
  72, 250,
  72, 252,
  72, 253,
  72, 256,
  72, 259,
  72, 261,
  72, 262,
  72, 265,
  72, 268,
  72, 269,
  72, 272,
  72, 274,
  72, 276,
  72, 277,
  72, 279,
  72, 280,
  72, 282,
  72, 283,
  72, 285,
  72, 286,
  72, 290,
  72, 293,
  72, 294,
  72, 295,
  72, 296,
  72, 297,
  72, 298,
  72, 302,
  72, 303,
  72, 307,
  72, 308,
  72, 310,
  72, 313,
  72, 314,
  72, 317,
  72, 318,
  72, 320,
  72, 321,
  72, 322,
  72, 327,
  72, 328,
  72, 329,
  72, 333,
  72, 335,
  72, 336,
  72, 338,
  72, 345,
  72, 346,
  72, 347,
  72, 349,
  72, 351,
  72, 352,
  72, 355,
  72, 357,
  72, 359,
  72, 361,
  72, 364,
  72, 370,
  72, 371,
  72, 373,
  72, 374,
  72, 375,
  72, 376,
  72, 377,
  72, 383,
  72, 384,
  72, 385,
  72, 386,
  72, 388,
  72, 391,
  72, 398,
  73, 74,
  73, 77,
  73, 78,
  73, 81,
  73, 82,
  73, 83,
  73, 87,
  73, 88,
  73, 90,
  73, 91,
  73, 92,
  73, 94,
  73, 95,
  73, 101,
  73, 103,
  73, 105,
  73, 106,
  73, 107,
  73, 109,
  73, 111,
  73, 112,
  73, 115,
  73, 116,
  73, 117,
  73, 118,
  73, 121,
  73, 124,
  73, 126,
  73, 127,
  73, 129,
  73, 132,
  73, 134,
  73, 135,
  73, 143,
  73, 144,
  73, 146,
  73, 148,
  73, 150,
  73, 151,
  73, 152,
  73, 156,
  73, 157,
  73, 158,
  73, 161,
  73, 168,
  73, 170,
  73, 174,
  73, 177,
  73, 178,
  73, 179,
  73, 180,
  73, 183,
  73, 185,
  73, 190,
  73, 192,
  73, 194,
  73, 196,
  73, 198,
  73, 200,
  73, 203,
  73, 205,
  73, 206,
  73, 207,
  73, 214,
  73, 215,
  73, 217,
  73, 219,
  73, 222,
  73, 224,
  73, 225,
  73, 226,
  73, 228,
  73, 229,
  73, 230,
  73, 236,
  73, 237,
  73, 238,
  73, 240,
  73, 242,
  73, 246,
  73, 249,
  73, 250,
  73, 253,
  73, 255,
  73, 257,
  73, 258,
  73, 260,
  73, 261,
  73, 263,
  73, 266,
  73, 268,
  73, 269,
  73, 270,
  73, 271,
  73, 272,
  73, 273,
  73, 274,
  73, 277,
  73, 278,
  73, 282,
  73, 283,
  73, 286,
  73, 288,
  73, 289,
  73, 296,
  73, 297,
  73, 298,
  73, 299,
  73, 304,
  73, 308,
  73, 309,
  73, 310,
  73, 312,
  73, 313,
  73, 315,
  73, 316,
  73, 318,
  73, 319,
  73, 321,
  73, 322,
  73, 324,
  73, 326,
  73, 328,
  73, 329,
  73, 331,
  73, 332,
  73, 333,
  73, 335,
  73, 336,
  73, 337,
  73, 338,
  73, 339,
  73, 343,
  73, 344,
  73, 350,
  73, 352,
  73, 353,
  73, 355,
  73, 356,
  73, 357,
  73, 360,
  73, 362,
  73, 364,
  73, 369,
  73, 373,
  73, 378,
  73, 380,
  73, 382,
  73, 383,
  73, 385,
  73, 386,
  73, 391,
  73, 395,
  73, 400,
  74, 78,
  74, 79,
  74, 81,
  74, 82,
  74, 85,
  74, 88,
  74, 89,
  74, 91,
  74, 92,
  74, 94,
  74, 96,
  74, 97,
  74, 98,
  74, 99,
  74, 105,
  74, 106,
  74, 108,
  74, 109,
  74, 110,
  74, 113,
  74, 115,
  74, 119,
  74, 121,
  74, 123,
  74, 125,
  74, 128,
  74, 130,
  74, 131,
  74, 134,
  74, 136,
  74, 142,
  74, 143,
  74, 144,
  74, 147,
  74, 150,
  74, 151,
  74, 152,
  74, 155,
  74, 156,
  74, 157,
  74, 158,
  74, 159,
  74, 160,
  74, 162,
  74, 166,
  74, 167,
  74, 169,
  74, 172,
  74, 176,
  74, 181,
  74, 182,
  74, 186,
  74, 187,
  74, 189,
  74, 191,
  74, 194,
  74, 195,
  74, 198,
  74, 199,
  74, 200,
  74, 201,
  74, 202,
  74, 203,
  74, 204,
  74, 208,
  74, 210,
  74, 212,
  74, 213,
  74, 214,
  74, 216,
  74, 218,
  74, 219,
  74, 223,
  74, 225,
  74, 226,
  74, 227,
  74, 228,
  74, 229,
  74, 233,
  74, 235,
  74, 236,
  74, 237,
  74, 242,
  74, 243,
  74, 245,
  74, 247,
  74, 248,
  74, 250,
  74, 256,
  74, 257,
  74, 259,
  74, 260,
  74, 261,
  74, 263,
  74, 266,
  74, 267,
  74, 272,
  74, 273,
  74, 275,
  74, 278,
  74, 279,
  74, 280,
  74, 282,
  74, 287,
  74, 290,
  74, 293,
  74, 295,
  74, 296,
  74, 300,
  74, 301,
  74, 305,
  74, 308,
  74, 311,
  74, 312,
  74, 316,
  74, 318,
  74, 320,
  74, 322,
  74, 326,
  74, 331,
  74, 333,
  74, 334,
  74, 335,
  74, 341,
  74, 344,
  74, 347,
  74, 349,
  74, 350,
  74, 351,
  74, 354,
  74, 357,
  74, 359,
  74, 361,
  74, 364,
  74, 366,
  74, 368,
  74, 371,
  74, 372,
  74, 373,
  74, 374,
  74, 375,
  74, 377,
  74, 379,
  74, 381,
  74, 386,
  74, 387,
  74, 388,
  74, 389,
  74, 390,
  74, 391,
  74, 393,
  74, 394,
  74, 395,
  74, 396,
  74, 398,
  74, 399,
  74, 400,
  75, 78,
  75, 79,
  75, 81,
  75, 84,
  75, 85,
  75, 89,
  75, 90,
  75, 91,
  75, 95,
  75, 97,
  75, 98,
  75, 99,
  75, 100,
  75, 102,
  75, 105,
  75, 106,
  75, 107,
  75, 108,
  75, 110,
  75, 111,
  75, 112,
  75, 115,
  75, 117,
  75, 118,
  75, 119,
  75, 120,
  75, 122,
  75, 124,
  75, 126,
  75, 127,
  75, 129,
  75, 132,
  75, 138,
  75, 139,
  75, 141,
  75, 145,
  75, 146,
  75, 149,
  75, 150,
  75, 151,
  75, 152,
  75, 154,
  75, 157,
  75, 159,
  75, 161,
  75, 163,
  75, 164,
  75, 165,
  75, 166,
  75, 167,
  75, 169,
  75, 170,
  75, 173,
  75, 175,
  75, 177,
  75, 178,
  75, 179,
  75, 182,
  75, 183,
  75, 185,
  75, 186,
  75, 188,
  75, 192,
  75, 194,
  75, 196,
  75, 199,
  75, 200,
  75, 201,
  75, 202,
  75, 210,
  75, 211,
  75, 212,
  75, 213,
  75, 216,
  75, 219,
  75, 222,
  75, 223,
  75, 224,
  75, 225,
  75, 227,
  75, 230,
  75, 234,
  75, 236,
  75, 239,
  75, 240,
  75, 241,
  75, 242,
  75, 243,
  75, 246,
  75, 247,
  75, 248,
  75, 250,
  75, 251,
  75, 252,
  75, 253,
  75, 255,
  75, 256,
  75, 257,
  75, 258,
  75, 259,
  75, 260,
  75, 265,
  75, 267,
  75, 272,
  75, 276,
  75, 277,
  75, 278,
  75, 279,
  75, 280,
  75, 282,
  75, 284,
  75, 285,
  75, 289,
  75, 290,
  75, 291,
  75, 292,
  75, 293,
  75, 295,
  75, 296,
  75, 302,
  75, 303,
  75, 304,
  75, 306,
  75, 307,
  75, 308,
  75, 309,
  75, 312,
  75, 314,
  75, 316,
  75, 319,
  75, 323,
  75, 325,
  75, 328,
  75, 330,
  75, 335,
  75, 338,
  75, 341,
  75, 342,
  75, 344,
  75, 346,
  75, 349,
  75, 352,
  75, 353,
  75, 354,
  75, 355,
  75, 356,
  75, 357,
  75, 358,
  75, 361,
  75, 364,
  75, 365,
  75, 366,
  75, 368,
  75, 369,
  75, 370,
  75, 371,
  75, 376,
  75, 380,
  75, 383,
  75, 387,
  75, 388,
  75, 389,
  75, 390,
  75, 393,
  75, 395,
  75, 397,
  75, 398,
  76, 79,
  76, 81,
  76, 82,
  76, 83,
  76, 86,
  76, 87,
  76, 88,
  76, 89,
  76, 91,
  76, 92,
  76, 93,
  76, 98,
  76, 99,
  76, 102,
  76, 104,
  76, 105,
  76, 107,
  76, 110,
  76, 111,
  76, 112,
  76, 118,
  76, 120,
  76, 121,
  76, 122,
  76, 128,
  76, 129,
  76, 131,
  76, 136,
  76, 139,
  76, 140,
  76, 143,
  76, 145,
  76, 146,
  76, 148,
  76, 151,
  76, 153,
  76, 154,
  76, 156,
  76, 159,
  76, 160,
  76, 161,
  76, 162,
  76, 163,
  76, 164,
  76, 166,
  76, 167,
  76, 168,
  76, 170,
  76, 172,
  76, 173,
  76, 177,
  76, 178,
  76, 179,
  76, 180,
  76, 181,
  76, 182,
  76, 183,
  76, 188,
  76, 189,
  76, 190,
  76, 194,
  76, 200,
  76, 201,
  76, 203,
  76, 204,
  76, 206,
  76, 207,
  76, 208,
  76, 210,
  76, 211,
  76, 212,
  76, 213,
  76, 218,
  76, 220,
  76, 222,
  76, 224,
  76, 228,
  76, 231,
  76, 233,
  76, 234,
  76, 235,
  76, 237,
  76, 239,
  76, 240,
  76, 242,
  76, 244,
  76, 246,
  76, 247,
  76, 250,
  76, 251,
  76, 252,
  76, 253,
  76, 255,
  76, 258,
  76, 259,
  76, 261,
  76, 262,
  76, 264,
  76, 266,
  76, 268,
  76, 269,
  76, 272,
  76, 273,
  76, 274,
  76, 275,
  76, 276,
  76, 277,
  76, 278,
  76, 281,
  76, 282,
  76, 283,
  76, 284,
  76, 286,
  76, 287,
  76, 290,
  76, 291,
  76, 292,
  76, 294,
  76, 296,
  76, 298,
  76, 299,
  76, 300,
  76, 301,
  76, 305,
  76, 307,
  76, 308,
  76, 311,
  76, 314,
  76, 316,
  76, 317,
  76, 319,
  76, 320,
  76, 322,
  76, 325,
  76, 331,
  76, 333,
  76, 334,
  76, 335,
  76, 336,
  76, 337,
  76, 338,
  76, 340,
  76, 343,
  76, 345,
  76, 348,
  76, 349,
  76, 350,
  76, 353,
  76, 356,
  76, 357,
  76, 358,
  76, 359,
  76, 361,
  76, 362,
  76, 363,
  76, 364,
  76, 366,
  76, 367,
  76, 368,
  76, 369,
  76, 373,
  76, 374,
  76, 379,
  76, 380,
  76, 385,
  76, 389,
  76, 390,
  76, 391,
  76, 392,
  76, 393,
  76, 394,
  76, 399,
  77, 78,
  77, 79,
  77, 80,
  77, 82,
  77, 84,
  77, 85,
  77, 90,
  77, 91,
  77, 93,
  77, 97,
  77, 104,
  77, 105,
  77, 106,
  77, 107,
  77, 108,
  77, 112,
  77, 113,
  77, 115,
  77, 118,
  77, 122,
  77, 125,
  77, 132,
  77, 134,
  77, 137,
  77, 138,
  77, 140,
  77, 141,
  77, 143,
  77, 146,
  77, 150,
  77, 151,
  77, 154,
  77, 155,
  77, 156,
  77, 157,
  77, 159,
  77, 160,
  77, 163,
  77, 166,
  77, 167,
  77, 169,
  77, 170,
  77, 171,
  77, 172,
  77, 175,
  77, 177,
  77, 182,
  77, 183,
  77, 186,
  77, 187,
  77, 189,
  77, 190,
  77, 191,
  77, 192,
  77, 193,
  77, 194,
  77, 195,
  77, 196,
  77, 197,
  77, 200,
  77, 202,
  77, 203,
  77, 205,
  77, 211,
  77, 212,
  77, 218,
  77, 220,
  77, 224,
  77, 225,
  77, 229,
  77, 230,
  77, 231,
  77, 232,
  77, 234,
  77, 237,
  77, 241,
  77, 242,
  77, 244,
  77, 245,
  77, 247,
  77, 249,
  77, 251,
  77, 254,
  77, 255,
  77, 257,
  77, 259,
  77, 260,
  77, 261,
  77, 262,
  77, 266,
  77, 268,
  77, 270,
  77, 274,
  77, 276,
  77, 278,
  77, 279,
  77, 280,
  77, 282,
  77, 285,
  77, 286,
  77, 287,
  77, 288,
  77, 292,
  77, 293,
  77, 297,
  77, 299,
  77, 301,
  77, 302,
  77, 303,
  77, 304,
  77, 305,
  77, 309,
  77, 313,
  77, 314,
  77, 315,
  77, 316,
  77, 317,
  77, 318,
  77, 319,
  77, 323,
  77, 328,
  77, 332,
  77, 334,
  77, 336,
  77, 338,
  77, 340,
  77, 342,
  77, 346,
  77, 349,
  77, 351,
  77, 354,
  77, 356,
  77, 359,
  77, 360,
  77, 362,
  77, 363,
  77, 365,
  77, 366,
  77, 371,
  77, 373,
  77, 375,
  77, 378,
  77, 379,
  77, 382,
  77, 386,
  77, 389,
  77, 391,
  77, 393,
  77, 394,
  77, 395,
  77, 396,
  77, 400,
  78, 79,
  78, 82,
  78, 83,
  78, 87,
  78, 89,
  78, 90,
  78, 93,
  78, 94,
  78, 95,
  78, 96,
  78, 99,
  78, 103,
  78, 105,
  78, 106,
  78, 107,
  78, 108,
  78, 110,
  78, 115,
  78, 124,
  78, 125,
  78, 126,
  78, 129,
  78, 142,
  78, 143,
  78, 144,
  78, 147,
  78, 148,
  78, 149,
  78, 151,
  78, 152,
  78, 153,
  78, 154,
  78, 157,
  78, 159,
  78, 160,
  78, 161,
  78, 162,
  78, 166,
  78, 169,
  78, 171,
  78, 172,
  78, 173,
  78, 175,
  78, 176,
  78, 177,
  78, 179,
  78, 184,
  78, 186,
  78, 187,
  78, 189,
  78, 191,
  78, 194,
  78, 195,
  78, 196,
  78, 197,
  78, 199,
  78, 203,
  78, 210,
  78, 211,
  78, 213,
  78, 215,
  78, 216,
  78, 217,
  78, 219,
  78, 222,
  78, 223,
  78, 224,
  78, 225,
  78, 226,
  78, 229,
  78, 232,
  78, 233,
  78, 236,
  78, 238,
  78, 240,
  78, 243,
  78, 244,
  78, 245,
  78, 249,
  78, 252,
  78, 253,
  78, 254,
  78, 257,
  78, 259,
  78, 260,
  78, 261,
  78, 262,
  78, 263,
  78, 264,
  78, 265,
  78, 266,
  78, 267,
  78, 270,
  78, 272,
  78, 275,
  78, 276,
  78, 278,
  78, 280,
  78, 281,
  78, 285,
  78, 286,
  78, 288,
  78, 291,
  78, 293,
  78, 294,
  78, 295,
  78, 296,
  78, 297,
  78, 298,
  78, 300,
  78, 302,
  78, 303,
  78, 304,
  78, 305,
  78, 307,
  78, 308,
  78, 309,
  78, 310,
  78, 311,
  78, 314,
  78, 315,
  78, 316,
  78, 318,
  78, 320,
  78, 326,
  78, 330,
  78, 331,
  78, 332,
  78, 333,
  78, 340,
  78, 341,
  78, 342,
  78, 344,
  78, 345,
  78, 346,
  78, 348,
  78, 349,
  78, 350,
  78, 352,
  78, 353,
  78, 355,
  78, 356,
  78, 363,
  78, 366,
  78, 367,
  78, 368,
  78, 377,
  78, 379,
  78, 380,
  78, 381,
  78, 382,
  78, 386,
  78, 389,
  78, 391,
  78, 393,
  78, 394,
  78, 397,
  78, 399,
  79, 80,
  79, 81,
  79, 82,
  79, 83,
  79, 84,
  79, 85,
  79, 87,
  79, 88,
  79, 90,
  79, 91,
  79, 92,
  79, 99,
  79, 100,
  79, 101,
  79, 102,
  79, 106,
  79, 107,
  79, 109,
  79, 111,
  79, 114,
  79, 115,
  79, 117,
  79, 119,
  79, 120,
  79, 121,
  79, 122,
  79, 123,
  79, 124,
  79, 127,
  79, 128,
  79, 130,
  79, 131,
  79, 133,
  79, 134,
  79, 135,
  79, 138,
  79, 139,
  79, 140,
  79, 142,
  79, 144,
  79, 145,
  79, 147,
  79, 148,
  79, 150,
  79, 153,
  79, 154,
  79, 155,
  79, 157,
  79, 158,
  79, 159,
  79, 161,
  79, 164,
  79, 165,
  79, 166,
  79, 167,
  79, 168,
  79, 171,
  79, 174,
  79, 176,
  79, 177,
  79, 179,
  79, 181,
  79, 182,
  79, 186,
  79, 189,
  79, 190,
  79, 193,
  79, 200,
  79, 203,
  79, 205,
  79, 206,
  79, 211,
  79, 212,
  79, 214,
  79, 215,
  79, 218,
  79, 219,
  79, 222,
  79, 223,
  79, 224,
  79, 228,
  79, 229,
  79, 230,
  79, 231,
  79, 233,
  79, 237,
  79, 241,
  79, 243,
  79, 244,
  79, 245,
  79, 246,
  79, 247,
  79, 248,
  79, 249,
  79, 251,
  79, 255,
  79, 258,
  79, 259,
  79, 260,
  79, 261,
  79, 264,
  79, 265,
  79, 266,
  79, 268,
  79, 270,
  79, 271,
  79, 272,
  79, 275,
  79, 277,
  79, 279,
  79, 281,
  79, 282,
  79, 284,
  79, 285,
  79, 287,
  79, 288,
  79, 289,
  79, 291,
  79, 292,
  79, 293,
  79, 294,
  79, 295,
  79, 296,
  79, 298,
  79, 306,
  79, 307,
  79, 310,
  79, 313,
  79, 314,
  79, 317,
  79, 320,
  79, 323,
  79, 324,
  79, 326,
  79, 329,
  79, 330,
  79, 332,
  79, 333,
  79, 335,
  79, 336,
  79, 339,
  79, 342,
  79, 345,
  79, 346,
  79, 347,
  79, 350,
  79, 351,
  79, 353,
  79, 356,
  79, 357,
  79, 358,
  79, 360,
  79, 362,
  79, 363,
  79, 364,
  79, 366,
  79, 367,
  79, 368,
  79, 369,
  79, 370,
  79, 371,
  79, 373,
  79, 374,
  79, 375,
  79, 376,
  79, 377,
  79, 378,
  79, 379,
  79, 380,
  79, 381,
  79, 385,
  79, 386,
  79, 389,
  79, 390,
  79, 391,
  79, 394,
  79, 396,
  79, 398,
  80, 81,
  80, 82,
  80, 83,
  80, 84,
  80, 89,
  80, 91,
  80, 92,
  80, 95,
  80, 98,
  80, 99,
  80, 101,
  80, 102,
  80, 105,
  80, 108,
  80, 112,
  80, 113,
  80, 114,
  80, 116,
  80, 119,
  80, 121,
  80, 124,
  80, 126,
  80, 127,
  80, 130,
  80, 131,
  80, 132,
  80, 133,
  80, 135,
  80, 137,
  80, 144,
  80, 145,
  80, 146,
  80, 147,
  80, 148,
  80, 149,
  80, 150,
  80, 152,
  80, 155,
  80, 156,
  80, 159,
  80, 160,
  80, 162,
  80, 164,
  80, 165,
  80, 166,
  80, 168,
  80, 169,
  80, 172,
  80, 174,
  80, 177,
  80, 178,
  80, 179,
  80, 180,
  80, 184,
  80, 185,
  80, 186,
  80, 187,
  80, 190,
  80, 191,
  80, 192,
  80, 193,
  80, 195,
  80, 196,
  80, 198,
  80, 200,
  80, 201,
  80, 202,
  80, 207,
  80, 209,
  80, 212,
  80, 213,
  80, 217,
  80, 218,
  80, 220,
  80, 221,
  80, 226,
  80, 228,
  80, 229,
  80, 232,
  80, 235,
  80, 236,
  80, 237,
  80, 238,
  80, 240,
  80, 242,
  80, 243,
  80, 246,
  80, 247,
  80, 248,
  80, 249,
  80, 250,
  80, 253,
  80, 255,
  80, 256,
  80, 260,
  80, 266,
  80, 268,
  80, 270,
  80, 274,
  80, 277,
  80, 281,
  80, 282,
  80, 284,
  80, 285,
  80, 286,
  80, 287,
  80, 288,
  80, 293,
  80, 294,
  80, 296,
  80, 303,
  80, 309,
  80, 311,
  80, 314,
  80, 315,
  80, 318,
  80, 320,
  80, 321,
  80, 322,
  80, 323,
  80, 326,
  80, 328,
  80, 332,
  80, 334,
  80, 335,
  80, 339,
  80, 341,
  80, 342,
  80, 343,
  80, 344,
  80, 346,
  80, 347,
  80, 348,
  80, 349,
  80, 351,
  80, 352,
  80, 354,
  80, 356,
  80, 359,
  80, 361,
  80, 362,
  80, 363,
  80, 366,
  80, 370,
  80, 371,
  80, 372,
  80, 378,
  80, 379,
  80, 380,
  80, 385,
  80, 388,
  80, 392,
  80, 396,
  80, 397,
  80, 399,
  80, 400,
  81, 83,
  81, 85,
  81, 90,
  81, 93,
  81, 95,
  81, 96,
  81, 97,
  81, 102,
  81, 103,
  81, 104,
  81, 106,
  81, 109,
  81, 110,
  81, 111,
  81, 113,
  81, 115,
  81, 116,
  81, 118,
  81, 120,
  81, 125,
  81, 126,
  81, 129,
  81, 131,
  81, 136,
  81, 137,
  81, 138,
  81, 144,
  81, 145,
  81, 146,
  81, 147,
  81, 148,
  81, 150,
  81, 153,
  81, 154,
  81, 155,
  81, 159,
  81, 160,
  81, 162,
  81, 163,
  81, 165,
  81, 166,
  81, 167,
  81, 169,
  81, 171,
  81, 172,
  81, 173,
  81, 174,
  81, 175,
  81, 176,
  81, 177,
  81, 178,
  81, 183,
  81, 187,
  81, 188,
  81, 189,
  81, 192,
  81, 196,
  81, 197,
  81, 198,
  81, 202,
  81, 203,
  81, 204,
  81, 205,
  81, 207,
  81, 208,
  81, 209,
  81, 211,
  81, 212,
  81, 213,
  81, 214,
  81, 215,
  81, 218,
  81, 221,
  81, 222,
  81, 223,
  81, 224,
  81, 225,
  81, 226,
  81, 227,
  81, 229,
  81, 230,
  81, 232,
  81, 235,
  81, 236,
  81, 238,
  81, 244,
  81, 246,
  81, 248,
  81, 249,
  81, 250,
  81, 254,
  81, 255,
  81, 259,
  81, 262,
  81, 263,
  81, 264,
  81, 265,
  81, 266,
  81, 268,
  81, 270,
  81, 273,
  81, 274,
  81, 276,
  81, 280,
  81, 283,
  81, 284,
  81, 289,
  81, 291,
  81, 293,
  81, 294,
  81, 297,
  81, 298,
  81, 300,
  81, 301,
  81, 302,
  81, 303,
  81, 309,
  81, 310,
  81, 312,
  81, 314,
  81, 315,
  81, 320,
  81, 321,
  81, 322,
  81, 323,
  81, 326,
  81, 329,
  81, 333,
  81, 334,
  81, 335,
  81, 337,
  81, 339,
  81, 340,
  81, 341,
  81, 343,
  81, 344,
  81, 345,
  81, 346,
  81, 347,
  81, 348,
  81, 351,
  81, 352,
  81, 353,
  81, 356,
  81, 359,
  81, 361,
  81, 362,
  81, 363,
  81, 367,
  81, 368,
  81, 372,
  81, 374,
  81, 377,
  81, 378,
  81, 379,
  81, 380,
  81, 381,
  81, 385,
  81, 386,
  81, 388,
  81, 390,
  81, 392,
  81, 394,
  81, 395,
  81, 396,
  81, 397,
  81, 398,
  82, 84,
  82, 85,
  82, 89,
  82, 90,
  82, 91,
  82, 92,
  82, 93,
  82, 95,
  82, 96,
  82, 98,
  82, 100,
  82, 101,
  82, 102,
  82, 103,
  82, 104,
  82, 105,
  82, 107,
  82, 108,
  82, 111,
  82, 113,
  82, 116,
  82, 117,
  82, 120,
  82, 121,
  82, 125,
  82, 126,
  82, 128,
  82, 130,
  82, 131,
  82, 132,
  82, 133,
  82, 136,
  82, 137,
  82, 138,
  82, 139,
  82, 142,
  82, 144,
  82, 145,
  82, 148,
  82, 150,
  82, 152,
  82, 153,
  82, 156,
  82, 157,
  82, 160,
  82, 161,
  82, 162,
  82, 163,
  82, 167,
  82, 172,
  82, 173,
  82, 177,
  82, 181,
  82, 182,
  82, 188,
  82, 191,
  82, 192,
  82, 193,
  82, 196,
  82, 197,
  82, 198,
  82, 199,
  82, 200,
  82, 202,
  82, 203,
  82, 206,
  82, 207,
  82, 208,
  82, 211,
  82, 213,
  82, 214,
  82, 216,
  82, 217,
  82, 225,
  82, 227,
  82, 228,
  82, 230,
  82, 231,
  82, 232,
  82, 233,
  82, 236,
  82, 240,
  82, 242,
  82, 243,
  82, 244,
  82, 247,
  82, 248,
  82, 249,
  82, 253,
  82, 254,
  82, 257,
  82, 258,
  82, 260,
  82, 262,
  82, 265,
  82, 268,
  82, 271,
  82, 272,
  82, 273,
  82, 275,
  82, 278,
  82, 279,
  82, 280,
  82, 282,
  82, 284,
  82, 285,
  82, 289,
  82, 290,
  82, 291,
  82, 293,
  82, 294,
  82, 295,
  82, 296,
  82, 297,
  82, 299,
  82, 300,
  82, 301,
  82, 304,
  82, 307,
  82, 308,
  82, 310,
  82, 311,
  82, 313,
  82, 315,
  82, 317,
  82, 318,
  82, 319,
  82, 323,
  82, 326,
  82, 327,
  82, 328,
  82, 329,
  82, 331,
  82, 335,
  82, 338,
  82, 339,
  82, 340,
  82, 343,
  82, 344,
  82, 346,
  82, 348,
  82, 350,
  82, 351,
  82, 352,
  82, 355,
  82, 357,
  82, 358,
  82, 360,
  82, 361,
  82, 362,
  82, 365,
  82, 367,
  82, 368,
  82, 371,
  82, 372,
  82, 373,
  82, 374,
  82, 375,
  82, 376,
  82, 379,
  82, 381,
  82, 383,
  82, 384,
  82, 388,
  82, 389,
  82, 390,
  82, 391,
  82, 392,
  82, 393,
  82, 394,
  82, 396,
  82, 398,
  83, 86,
  83, 88,
  83, 89,
  83, 90,
  83, 92,
  83, 93,
  83, 94,
  83, 95,
  83, 96,
  83, 98,
  83, 99,
  83, 101,
  83, 103,
  83, 107,
  83, 109,
  83, 112,
  83, 114,
  83, 115,
  83, 118,
  83, 119,
  83, 120,
  83, 122,
  83, 123,
  83, 125,
  83, 127,
  83, 129,
  83, 130,
  83, 132,
  83, 133,
  83, 134,
  83, 135,
  83, 137,
  83, 139,
  83, 141,
  83, 142,
  83, 144,
  83, 149,
  83, 151,
  83, 155,
  83, 156,
  83, 157,
  83, 158,
  83, 159,
  83, 161,
  83, 162,
  83, 164,
  83, 165,
  83, 169,
  83, 170,
  83, 172,
  83, 173,
  83, 178,
  83, 179,
  83, 183,
  83, 190,
  83, 191,
  83, 192,
  83, 193,
  83, 196,
  83, 198,
  83, 199,
  83, 201,
  83, 202,
  83, 203,
  83, 209,
  83, 210,
  83, 212,
  83, 213,
  83, 214,
  83, 219,
  83, 221,
  83, 224,
  83, 225,
  83, 226,
  83, 229,
  83, 232,
  83, 233,
  83, 235,
  83, 236,
  83, 238,
  83, 239,
  83, 240,
  83, 241,
  83, 246,
  83, 247,
  83, 248,
  83, 249,
  83, 252,
  83, 253,
  83, 256,
  83, 257,
  83, 259,
  83, 262,
  83, 263,
  83, 264,
  83, 265,
  83, 266,
  83, 268,
  83, 274,
  83, 276,
  83, 279,
  83, 281,
  83, 282,
  83, 284,
  83, 285,
  83, 286,
  83, 287,
  83, 288,
  83, 290,
  83, 291,
  83, 292,
  83, 293,
  83, 294,
  83, 295,
  83, 302,
  83, 304,
  83, 310,
  83, 312,
  83, 314,
  83, 315,
  83, 317,
  83, 318,
  83, 319,
  83, 321,
  83, 322,
  83, 327,
  83, 330,
  83, 331,
  83, 332,
  83, 333,
  83, 334,
  83, 335,
  83, 338,
  83, 339,
  83, 340,
  83, 341,
  83, 342,
  83, 345,
  83, 346,
  83, 347,
  83, 349,
  83, 351,
  83, 352,
  83, 354,
  83, 356,
  83, 358,
  83, 359,
  83, 360,
  83, 362,
  83, 365,
  83, 366,
  83, 367,
  83, 370,
  83, 374,
  83, 375,
  83, 377,
  83, 379,
  83, 380,
  83, 381,
  83, 384,
  83, 385,
  83, 386,
  83, 387,
  83, 389,
  83, 392,
  83, 394,
  83, 395,
  83, 396,
  83, 397,
  83, 399,
  83, 400,
  84, 85,
  84, 87,
  84, 90,
  84, 91,
  84, 92,
  84, 93,
  84, 95,
  84, 96,
  84, 102,
  84, 104,
  84, 105,
  84, 111,
  84, 116,
  84, 120,
  84, 121,
  84, 123,
  84, 126,
  84, 127,
  84, 129,
  84, 134,
  84, 136,
  84, 138,
  84, 141,
  84, 142,
  84, 146,
  84, 147,
  84, 148,
  84, 152,
  84, 153,
  84, 154,
  84, 156,
  84, 159,
  84, 160,
  84, 163,
  84, 164,
  84, 165,
  84, 166,
  84, 168,
  84, 169,
  84, 171,
  84, 172,
  84, 175,
  84, 178,
  84, 180,
  84, 181,
  84, 183,
  84, 184,
  84, 187,
  84, 188,
  84, 190,
  84, 192,
  84, 193,
  84, 195,
  84, 196,
  84, 200,
  84, 201,
  84, 204,
  84, 205,
  84, 206,
  84, 211,
  84, 214,
  84, 217,
  84, 218,
  84, 233,
  84, 236,
  84, 237,
  84, 238,
  84, 239,
  84, 240,
  84, 241,
  84, 242,
  84, 247,
  84, 249,
  84, 252,
  84, 254,
  84, 256,
  84, 257,
  84, 260,
  84, 262,
  84, 264,
  84, 266,
  84, 270,
  84, 271,
  84, 272,
  84, 273,
  84, 275,
  84, 279,
  84, 283,
  84, 286,
  84, 288,
  84, 289,
  84, 290,
  84, 291,
  84, 294,
  84, 295,
  84, 296,
  84, 297,
  84, 298,
  84, 299,
  84, 300,
  84, 304,
  84, 305,
  84, 307,
  84, 311,
  84, 312,
  84, 313,
  84, 315,
  84, 316,
  84, 318,
  84, 319,
  84, 320,
  84, 323,
  84, 326,
  84, 329,
  84, 332,
  84, 334,
  84, 335,
  84, 337,
  84, 339,
  84, 340,
  84, 344,
  84, 345,
  84, 347,
  84, 349,
  84, 356,
  84, 357,
  84, 359,
  84, 362,
  84, 366,
  84, 369,
  84, 370,
  84, 372,
  84, 374,
  84, 375,
  84, 376,
  84, 378,
  84, 379,
  84, 381,
  84, 382,
  84, 383,
  84, 384,
  84, 385,
  84, 386,
  84, 390,
  84, 391,
  84, 392,
  84, 394,
  85, 86,
  85, 87,
  85, 88,
  85, 89,
  85, 90,
  85, 95,
  85, 96,
  85, 97,
  85, 99,
  85, 101,
  85, 102,
  85, 106,
  85, 108,
  85, 110,
  85, 113,
  85, 114,
  85, 116,
  85, 124,
  85, 127,
  85, 128,
  85, 129,
  85, 130,
  85, 131,
  85, 134,
  85, 137,
  85, 140,
  85, 141,
  85, 142,
  85, 146,
  85, 147,
  85, 148,
  85, 153,
  85, 156,
  85, 161,
  85, 164,
  85, 165,
  85, 166,
  85, 167,
  85, 172,
  85, 176,
  85, 177,
  85, 178,
  85, 179,
  85, 180,
  85, 181,
  85, 183,
  85, 184,
  85, 187,
  85, 189,
  85, 190,
  85, 191,
  85, 192,
  85, 193,
  85, 194,
  85, 195,
  85, 198,
  85, 199,
  85, 201,
  85, 203,
  85, 204,
  85, 208,
  85, 211,
  85, 212,
  85, 213,
  85, 216,
  85, 218,
  85, 219,
  85, 223,
  85, 231,
  85, 232,
  85, 233,
  85, 234,
  85, 236,
  85, 237,
  85, 238,
  85, 240,
  85, 241,
  85, 242,
  85, 244,
  85, 245,
  85, 247,
  85, 249,
  85, 250,
  85, 255,
  85, 256,
  85, 258,
  85, 259,
  85, 260,
  85, 263,
  85, 264,
  85, 268,
  85, 271,
  85, 272,
  85, 274,
  85, 277,
  85, 281,
  85, 282,
  85, 283,
  85, 289,
  85, 292,
  85, 294,
  85, 295,
  85, 299,
  85, 300,
  85, 305,
  85, 307,
  85, 309,
  85, 310,
  85, 313,
  85, 315,
  85, 316,
  85, 320,
  85, 322,
  85, 325,
  85, 326,
  85, 327,
  85, 331,
  85, 332,
  85, 333,
  85, 334,
  85, 335,
  85, 339,
  85, 342,
  85, 344,
  85, 345,
  85, 347,
  85, 348,
  85, 349,
  85, 351,
  85, 353,
  85, 355,
  85, 356,
  85, 358,
  85, 360,
  85, 361,
  85, 362,
  85, 364,
  85, 365,
  85, 366,
  85, 368,
  85, 369,
  85, 370,
  85, 371,
  85, 372,
  85, 374,
  85, 375,
  85, 377,
  85, 378,
  85, 383,
  85, 385,
  85, 386,
  85, 388,
  85, 389,
  85, 393,
  85, 394,
  85, 395,
  85, 396,
  86, 88,
  86, 89,
  86, 93,
  86, 95,
  86, 96,
  86, 97,
  86, 99,
  86, 100,
  86, 101,
  86, 103,
  86, 105,
  86, 106,
  86, 107,
  86, 110,
  86, 112,
  86, 115,
  86, 117,
  86, 118,
  86, 121,
  86, 124,
  86, 127,
  86, 128,
  86, 129,
  86, 133,
  86, 140,
  86, 141,
  86, 144,
  86, 146,
  86, 152,
  86, 153,
  86, 154,
  86, 155,
  86, 156,
  86, 157,
  86, 164,
  86, 165,
  86, 166,
  86, 169,
  86, 171,
  86, 174,
  86, 177,
  86, 179,
  86, 180,
  86, 181,
  86, 182,
  86, 185,
  86, 187,
  86, 188,
  86, 189,
  86, 191,
  86, 192,
  86, 193,
  86, 194,
  86, 195,
  86, 196,
  86, 198,
  86, 199,
  86, 202,
  86, 203,
  86, 204,
  86, 206,
  86, 208,
  86, 213,
  86, 215,
  86, 216,
  86, 218,
  86, 219,
  86, 221,
  86, 223,
  86, 225,
  86, 228,
  86, 230,
  86, 234,
  86, 236,
  86, 237,
  86, 239,
  86, 242,
  86, 245,
  86, 252,
  86, 259,
  86, 265,
  86, 266,
  86, 268,
  86, 269,
  86, 273,
  86, 275,
  86, 276,
  86, 279,
  86, 280,
  86, 288,
  86, 292,
  86, 293,
  86, 294,
  86, 295,
  86, 297,
  86, 301,
  86, 303,
  86, 305,
  86, 310,
  86, 313,
  86, 315,
  86, 317,
  86, 318,
  86, 319,
  86, 320,
  86, 321,
  86, 322,
  86, 328,
  86, 331,
  86, 333,
  86, 334,
  86, 338,
  86, 339,
  86, 340,
  86, 342,
  86, 344,
  86, 345,
  86, 346,
  86, 347,
  86, 348,
  86, 349,
  86, 350,
  86, 352,
  86, 354,
  86, 356,
  86, 357,
  86, 358,
  86, 359,
  86, 363,
  86, 364,
  86, 370,
  86, 371,
  86, 372,
  86, 373,
  86, 376,
  86, 377,
  86, 381,
  86, 382,
  86, 383,
  86, 385,
  86, 386,
  86, 389,
  86, 390,
  86, 391,
  86, 392,
  86, 394,
  86, 398,
  87, 88,
  87, 90,
  87, 92,
  87, 93,
  87, 94,
  87, 96,
  87, 99,
  87, 100,
  87, 101,
  87, 104,
  87, 106,
  87, 108,
  87, 110,
  87, 114,
  87, 115,
  87, 121,
  87, 123,
  87, 124,
  87, 127,
  87, 132,
  87, 133,
  87, 135,
  87, 137,
  87, 139,
  87, 140,
  87, 149,
  87, 151,
  87, 152,
  87, 154,
  87, 155,
  87, 156,
  87, 157,
  87, 158,
  87, 159,
  87, 160,
  87, 161,
  87, 168,
  87, 170,
  87, 171,
  87, 172,
  87, 177,
  87, 179,
  87, 183,
  87, 184,
  87, 189,
  87, 192,
  87, 193,
  87, 195,
  87, 197,
  87, 199,
  87, 200,
  87, 201,
  87, 205,
  87, 207,
  87, 208,
  87, 209,
  87, 210,
  87, 211,
  87, 213,
  87, 214,
  87, 218,
  87, 219,
  87, 223,
  87, 224,
  87, 228,
  87, 230,
  87, 233,
  87, 235,
  87, 238,
  87, 240,
  87, 242,
  87, 245,
  87, 247,
  87, 252,
  87, 254,
  87, 256,
  87, 259,
  87, 260,
  87, 261,
  87, 262,
  87, 266,
  87, 267,
  87, 269,
  87, 270,
  87, 271,
  87, 272,
  87, 274,
  87, 276,
  87, 277,
  87, 279,
  87, 280,
  87, 281,
  87, 282,
  87, 283,
  87, 284,
  87, 292,
  87, 293,
  87, 295,
  87, 296,
  87, 298,
  87, 299,
  87, 300,
  87, 301,
  87, 303,
  87, 307,
  87, 308,
  87, 314,
  87, 315,
  87, 316,
  87, 319,
  87, 321,
  87, 322,
  87, 323,
  87, 324,
  87, 327,
  87, 328,
  87, 329,
  87, 330,
  87, 332,
  87, 333,
  87, 334,
  87, 335,
  87, 338,
  87, 344,
  87, 346,
  87, 348,
  87, 349,
  87, 351,
  87, 352,
  87, 354,
  87, 355,
  87, 356,
  87, 357,
  87, 358,
  87, 361,
  87, 364,
  87, 365,
  87, 367,
  87, 368,
  87, 369,
  87, 374,
  87, 375,
  87, 376,
  87, 382,
  87, 386,
  87, 387,
  87, 389,
  87, 395,
  87, 396,
  87, 399,
  87, 400,
  88, 89,
  88, 90,
  88, 93,
  88, 95,
  88, 96,
  88, 97,
  88, 99,
  88, 100,
  88, 103,
  88, 107,
  88, 110,
  88, 113,
  88, 114,
  88, 116,
  88, 119,
  88, 121,
  88, 122,
  88, 123,
  88, 124,
  88, 125,
  88, 126,
  88, 129,
  88, 133,
  88, 134,
  88, 135,
  88, 137,
  88, 138,
  88, 140,
  88, 141,
  88, 142,
  88, 143,
  88, 144,
  88, 145,
  88, 148,
  88, 150,
  88, 151,
  88, 152,
  88, 154,
  88, 155,
  88, 160,
  88, 163,
  88, 164,
  88, 166,
  88, 169,
  88, 171,
  88, 173,
  88, 174,
  88, 176,
  88, 177,
  88, 178,
  88, 182,
  88, 183,
  88, 184,
  88, 186,
  88, 187,
  88, 197,
  88, 198,
  88, 200,
  88, 202,
  88, 203,
  88, 204,
  88, 208,
  88, 211,
  88, 213,
  88, 214,
  88, 215,
  88, 219,
  88, 221,
  88, 222,
  88, 226,
  88, 230,
  88, 232,
  88, 233,
  88, 234,
  88, 235,
  88, 237,
  88, 239,
  88, 243,
  88, 245,
  88, 248,
  88, 250,
  88, 251,
  88, 254,
  88, 257,
  88, 258,
  88, 260,
  88, 263,
  88, 265,
  88, 266,
  88, 268,
  88, 269,
  88, 270,
  88, 272,
  88, 273,
  88, 274,
  88, 275,
  88, 277,
  88, 278,
  88, 282,
  88, 285,
  88, 286,
  88, 289,
  88, 292,
  88, 295,
  88, 303,
  88, 304,
  88, 308,
  88, 309,
  88, 310,
  88, 312,
  88, 313,
  88, 314,
  88, 315,
  88, 319,
  88, 320,
  88, 327,
  88, 328,
  88, 330,
  88, 332,
  88, 334,
  88, 337,
  88, 338,
  88, 339,
  88, 340,
  88, 341,
  88, 343,
  88, 344,
  88, 346,
  88, 347,
  88, 350,
  88, 353,
  88, 354,
  88, 357,
  88, 359,
  88, 363,
  88, 367,
  88, 369,
  88, 371,
  88, 374,
  88, 375,
  88, 376,
  88, 378,
  88, 381,
  88, 385,
  88, 388,
  88, 391,
  88, 393,
  88, 394,
  88, 395,
  88, 396,
  88, 398,
  88, 399,
  89, 92,
  89, 94,
  89, 96,
  89, 101,
  89, 102,
  89, 107,
  89, 108,
  89, 109,
  89, 111,
  89, 114,
  89, 115,
  89, 120,
  89, 127,
  89, 129,
  89, 131,
  89, 133,
  89, 134,
  89, 135,
  89, 138,
  89, 140,
  89, 141,
  89, 142,
  89, 143,
  89, 147,
  89, 148,
  89, 150,
  89, 151,
  89, 152,
  89, 154,
  89, 156,
  89, 160,
  89, 162,
  89, 165,
  89, 166,
  89, 168,
  89, 169,
  89, 170,
  89, 171,
  89, 172,
  89, 173,
  89, 175,
  89, 176,
  89, 177,
  89, 180,
  89, 181,
  89, 182,
  89, 184,
  89, 185,
  89, 188,
  89, 189,
  89, 190,
  89, 191,
  89, 192,
  89, 193,
  89, 196,
  89, 199,
  89, 203,
  89, 204,
  89, 207,
  89, 208,
  89, 209,
  89, 212,
  89, 214,
  89, 218,
  89, 221,
  89, 223,
  89, 227,
  89, 228,
  89, 230,
  89, 231,
  89, 235,
  89, 236,
  89, 242,
  89, 243,
  89, 244,
  89, 247,
  89, 250,
  89, 251,
  89, 252,
  89, 254,
  89, 256,
  89, 257,
  89, 258,
  89, 261,
  89, 266,
  89, 267,
  89, 268,
  89, 269,
  89, 270,
  89, 271,
  89, 272,
  89, 274,
  89, 275,
  89, 276,
  89, 277,
  89, 278,
  89, 279,
  89, 280,
  89, 281,
  89, 282,
  89, 283,
  89, 284,
  89, 287,
  89, 288,
  89, 289,
  89, 291,
  89, 292,
  89, 293,
  89, 296,
  89, 297,
  89, 300,
  89, 303,
  89, 304,
  89, 305,
  89, 307,
  89, 310,
  89, 311,
  89, 315,
  89, 316,
  89, 320,
  89, 321,
  89, 323,
  89, 324,
  89, 327,
  89, 328,
  89, 330,
  89, 332,
  89, 335,
  89, 340,
  89, 342,
  89, 343,
  89, 345,
  89, 346,
  89, 348,
  89, 349,
  89, 351,
  89, 352,
  89, 353,
  89, 355,
  89, 357,
  89, 358,
  89, 363,
  89, 364,
  89, 365,
  89, 366,
  89, 369,
  89, 370,
  89, 372,
  89, 378,
  89, 381,
  89, 386,
  89, 388,
  89, 389,
  89, 390,
  89, 393,
  89, 395,
  89, 397,
  89, 398,
  90, 91,
  90, 92,
  90, 93,
  90, 96,
  90, 97,
  90, 98,
  90, 102,
  90, 103,
  90, 107,
  90, 108,
  90, 109,
  90, 110,
  90, 111,
  90, 113,
  90, 118,
  90, 124,
  90, 125,
  90, 127,
  90, 129,
  90, 130,
  90, 131,
  90, 133,
  90, 136,
  90, 137,
  90, 139,
  90, 142,
  90, 144,
  90, 145,
  90, 146,
  90, 147,
  90, 154,
  90, 155,
  90, 156,
  90, 157,
  90, 158,
  90, 162,
  90, 166,
  90, 167,
  90, 171,
  90, 173,
  90, 174,
  90, 176,
  90, 178,
  90, 183,
  90, 184,
  90, 186,
  90, 188,
  90, 189,
  90, 190,
  90, 191,
  90, 192,
  90, 193,
  90, 194,
  90, 195,
  90, 196,
  90, 197,
  90, 198,
  90, 202,
  90, 204,
  90, 207,
  90, 208,
  90, 213,
  90, 216,
  90, 217,
  90, 220,
  90, 221,
  90, 224,
  90, 225,
  90, 226,
  90, 228,
  90, 229,
  90, 231,
  90, 232,
  90, 234,
  90, 237,
  90, 238,
  90, 240,
  90, 246,
  90, 251,
  90, 253,
  90, 256,
  90, 260,
  90, 262,
  90, 264,
  90, 265,
  90, 266,
  90, 268,
  90, 272,
  90, 273,
  90, 274,
  90, 276,
  90, 280,
  90, 281,
  90, 282,
  90, 285,
  90, 290,
  90, 292,
  90, 294,
  90, 296,
  90, 297,
  90, 298,
  90, 299,
  90, 301,
  90, 302,
  90, 303,
  90, 304,
  90, 305,
  90, 307,
  90, 309,
  90, 310,
  90, 311,
  90, 314,
  90, 315,
  90, 317,
  90, 320,
  90, 321,
  90, 323,
  90, 327,
  90, 328,
  90, 330,
  90, 331,
  90, 332,
  90, 333,
  90, 336,
  90, 337,
  90, 338,
  90, 340,
  90, 343,
  90, 344,
  90, 346,
  90, 347,
  90, 348,
  90, 350,
  90, 351,
  90, 353,
  90, 354,
  90, 358,
  90, 360,
  90, 363,
  90, 364,
  90, 365,
  90, 371,
  90, 372,
  90, 376,
  90, 377,
  90, 380,
  90, 381,
  90, 382,
  90, 386,
  90, 391,
  90, 392,
  90, 393,
  90, 394,
  90, 395,
  90, 396,
  90, 398,
  90, 400,
  91, 99,
  91, 101,
  91, 103,
  91, 104,
  91, 106,
  91, 108,
  91, 110,
  91, 111,
  91, 112,
  91, 113,
  91, 117,
  91, 118,
  91, 122,
  91, 123,
  91, 129,
  91, 130,
  91, 131,
  91, 132,
  91, 133,
  91, 136,
  91, 137,
  91, 139,
  91, 141,
  91, 142,
  91, 143,
  91, 144,
  91, 145,
  91, 146,
  91, 153,
  91, 154,
  91, 156,
  91, 157,
  91, 158,
  91, 160,
  91, 161,
  91, 162,
  91, 168,
  91, 169,
  91, 170,
  91, 171,
  91, 172,
  91, 174,
  91, 176,
  91, 177,
  91, 178,
  91, 179,
  91, 181,
  91, 182,
  91, 183,
  91, 185,
  91, 186,
  91, 187,
  91, 188,
  91, 189,
  91, 193,
  91, 200,
  91, 203,
  91, 204,
  91, 205,
  91, 206,
  91, 208,
  91, 211,
  91, 213,
  91, 214,
  91, 218,
  91, 220,
  91, 221,
  91, 223,
  91, 224,
  91, 226,
  91, 227,
  91, 228,
  91, 229,
  91, 230,
  91, 231,
  91, 234,
  91, 235,
  91, 236,
  91, 237,
  91, 238,
  91, 239,
  91, 240,
  91, 242,
  91, 243,
  91, 244,
  91, 248,
  91, 250,
  91, 251,
  91, 254,
  91, 255,
  91, 256,
  91, 257,
  91, 258,
  91, 260,
  91, 261,
  91, 262,
  91, 264,
  91, 265,
  91, 266,
  91, 269,
  91, 270,
  91, 272,
  91, 275,
  91, 276,
  91, 277,
  91, 279,
  91, 282,
  91, 283,
  91, 284,
  91, 289,
  91, 292,
  91, 293,
  91, 294,
  91, 295,
  91, 296,
  91, 297,
  91, 302,
  91, 303,
  91, 304,
  91, 305,
  91, 306,
  91, 307,
  91, 308,
  91, 310,
  91, 311,
  91, 314,
  91, 315,
  91, 316,
  91, 323,
  91, 324,
  91, 325,
  91, 327,
  91, 329,
  91, 331,
  91, 334,
  91, 335,
  91, 338,
  91, 340,
  91, 342,
  91, 348,
  91, 350,
  91, 351,
  91, 352,
  91, 354,
  91, 355,
  91, 357,
  91, 361,
  91, 363,
  91, 364,
  91, 368,
  91, 369,
  91, 370,
  91, 374,
  91, 378,
  91, 380,
  91, 381,
  91, 383,
  91, 386,
  91, 387,
  91, 388,
  91, 389,
  91, 391,
  91, 395,
  91, 396,
  91, 397,
  91, 399,
  91, 400,
  92, 95,
  92, 98,
  92, 99,
  92, 100,
  92, 101,
  92, 103,
  92, 104,
  92, 105,
  92, 108,
  92, 109,
  92, 110,
  92, 116,
  92, 117,
  92, 119,
  92, 120,
  92, 121,
  92, 122,
  92, 123,
  92, 127,
  92, 128,
  92, 129,
  92, 130,
  92, 133,
  92, 136,
  92, 140,
  92, 141,
  92, 144,
  92, 145,
  92, 146,
  92, 147,
  92, 148,
  92, 150,
  92, 154,
  92, 158,
  92, 161,
  92, 162,
  92, 165,
  92, 167,
  92, 168,
  92, 169,
  92, 170,
  92, 171,
  92, 172,
  92, 174,
  92, 176,
  92, 177,
  92, 178,
  92, 179,
  92, 181,
  92, 182,
  92, 183,
  92, 184,
  92, 185,
  92, 186,
  92, 189,
  92, 190,
  92, 193,
  92, 194,
  92, 198,
  92, 200,
  92, 203,
  92, 205,
  92, 212,
  92, 214,
  92, 216,
  92, 217,
  92, 220,
  92, 221,
  92, 229,
  92, 230,
  92, 234,
  92, 235,
  92, 236,
  92, 238,
  92, 242,
  92, 243,
  92, 244,
  92, 245,
  92, 246,
  92, 247,
  92, 248,
  92, 250,
  92, 253,
  92, 255,
  92, 256,
  92, 257,
  92, 258,
  92, 259,
  92, 263,
  92, 266,
  92, 269,
  92, 270,
  92, 271,
  92, 272,
  92, 273,
  92, 278,
  92, 279,
  92, 281,
  92, 283,
  92, 286,
  92, 290,
  92, 293,
  92, 295,
  92, 296,
  92, 298,
  92, 299,
  92, 302,
  92, 303,
  92, 309,
  92, 311,
  92, 312,
  92, 315,
  92, 317,
  92, 320,
  92, 321,
  92, 322,
  92, 323,
  92, 324,
  92, 326,
  92, 327,
  92, 328,
  92, 329,
  92, 332,
  92, 335,
  92, 336,
  92, 339,
  92, 341,
  92, 345,
  92, 348,
  92, 352,
  92, 355,
  92, 357,
  92, 358,
  92, 359,
  92, 362,
  92, 364,
  92, 371,
  92, 372,
  92, 375,
  92, 376,
  92, 381,
  92, 382,
  92, 383,
  92, 384,
  92, 386,
  92, 388,
  92, 391,
  92, 394,
  92, 396,
  92, 397,
  92, 399,
  93, 95,
  93, 96,
  93, 104,
  93, 110,
  93, 113,
  93, 114,
  93, 116,
  93, 117,
  93, 118,
  93, 120,
  93, 121,
  93, 126,
  93, 128,
  93, 131,
  93, 135,
  93, 136,
  93, 137,
  93, 138,
  93, 141,
  93, 143,
  93, 144,
  93, 148,
  93, 149,
  93, 150,
  93, 153,
  93, 159,
  93, 161,
  93, 165,
  93, 166,
  93, 168,
  93, 169,
  93, 170,
  93, 174,
  93, 176,
  93, 177,
  93, 179,
  93, 180,
  93, 182,
  93, 184,
  93, 185,
  93, 186,
  93, 187,
  93, 189,
  93, 190,
  93, 191,
  93, 193,
  93, 195,
  93, 196,
  93, 197,
  93, 198,
  93, 199,
  93, 202,
  93, 203,
  93, 205,
  93, 206,
  93, 207,
  93, 209,
  93, 213,
  93, 216,
  93, 218,
  93, 219,
  93, 221,
  93, 222,
  93, 223,
  93, 227,
  93, 230,
  93, 231,
  93, 232,
  93, 233,
  93, 236,
  93, 237,
  93, 239,
  93, 244,
  93, 245,
  93, 247,
  93, 250,
  93, 251,
  93, 252,
  93, 253,
  93, 254,
  93, 258,
  93, 259,
  93, 261,
  93, 269,
  93, 272,
  93, 273,
  93, 274,
  93, 278,
  93, 280,
  93, 283,
  93, 284,
  93, 285,
  93, 287,
  93, 288,
  93, 290,
  93, 292,
  93, 295,
  93, 296,
  93, 298,
  93, 299,
  93, 300,
  93, 301,
  93, 303,
  93, 304,
  93, 305,
  93, 306,
  93, 310,
  93, 313,
  93, 316,
  93, 319,
  93, 320,
  93, 322,
  93, 324,
  93, 325,
  93, 328,
  93, 331,
  93, 332,
  93, 335,
  93, 336,
  93, 341,
  93, 342,
  93, 349,
  93, 350,
  93, 351,
  93, 353,
  93, 354,
  93, 355,
  93, 356,
  93, 358,
  93, 359,
  93, 360,
  93, 365,
  93, 366,
  93, 367,
  93, 368,
  93, 369,
  93, 374,
  93, 375,
  93, 376,
  93, 377,
  93, 380,
  93, 383,
  93, 385,
  93, 387,
  93, 389,
  93, 391,
  93, 393,
  93, 394,
  93, 397,
  93, 399,
  94, 100,
  94, 104,
  94, 106,
  94, 107,
  94, 108,
  94, 110,
  94, 112,
  94, 114,
  94, 117,
  94, 118,
  94, 120,
  94, 121,
  94, 122,
  94, 123,
  94, 125,
  94, 126,
  94, 129,
  94, 132,
  94, 134,
  94, 139,
  94, 140,
  94, 144,
  94, 148,
  94, 151,
  94, 155,
  94, 159,
  94, 160,
  94, 161,
  94, 162,
  94, 167,
  94, 168,
  94, 169,
  94, 170,
  94, 172,
  94, 173,
  94, 177,
  94, 178,
  94, 179,
  94, 181,
  94, 182,
  94, 183,
  94, 186,
  94, 189,
  94, 190,
  94, 191,
  94, 192,
  94, 193,
  94, 194,
  94, 195,
  94, 196,
  94, 198,
  94, 201,
  94, 203,
  94, 204,
  94, 207,
  94, 208,
  94, 209,
  94, 210,
  94, 213,
  94, 217,
  94, 218,
  94, 222,
  94, 225,
  94, 227,
  94, 230,
  94, 238,
  94, 239,
  94, 240,
  94, 246,
  94, 247,
  94, 251,
  94, 252,
  94, 255,
  94, 256,
  94, 261,
  94, 262,
  94, 263,
  94, 267,
  94, 268,
  94, 270,
  94, 276,
  94, 279,
  94, 281,
  94, 284,
  94, 285,
  94, 287,
  94, 288,
  94, 294,
  94, 295,
  94, 297,
  94, 300,
  94, 301,
  94, 303,
  94, 304,
  94, 305,
  94, 306,
  94, 307,
  94, 309,
  94, 312,
  94, 315,
  94, 317,
  94, 318,
  94, 320,
  94, 322,
  94, 323,
  94, 324,
  94, 325,
  94, 326,
  94, 327,
  94, 331,
  94, 335,
  94, 336,
  94, 340,
  94, 342,
  94, 344,
  94, 346,
  94, 348,
  94, 352,
  94, 354,
  94, 356,
  94, 363,
  94, 365,
  94, 366,
  94, 367,
  94, 371,
  94, 372,
  94, 376,
  94, 380,
  94, 382,
  94, 386,
  94, 390,
  94, 392,
  94, 393,
  94, 394,
  94, 397,
  94, 398,
  94, 399,
  94, 400,
  95, 97,
  95, 98,
  95, 99,
  95, 103,
  95, 104,
  95, 105,
  95, 106,
  95, 107,
  95, 109,
  95, 110,
  95, 113,
  95, 114,
  95, 115,
  95, 119,
  95, 121,
  95, 125,
  95, 127,
  95, 128,
  95, 129,
  95, 130,
  95, 131,
  95, 134,
  95, 139,
  95, 140,
  95, 141,
  95, 143,
  95, 146,
  95, 147,
  95, 148,
  95, 150,
  95, 154,
  95, 155,
  95, 156,
  95, 157,
  95, 158,
  95, 159,
  95, 160,
  95, 163,
  95, 164,
  95, 166,
  95, 167,
  95, 168,
  95, 170,
  95, 172,
  95, 173,
  95, 178,
  95, 180,
  95, 182,
  95, 184,
  95, 187,
  95, 189,
  95, 192,
  95, 193,
  95, 194,
  95, 195,
  95, 197,
  95, 200,
  95, 201,
  95, 202,
  95, 203,
  95, 204,
  95, 205,
  95, 207,
  95, 209,
  95, 211,
  95, 214,
  95, 218,
  95, 219,
  95, 220,
  95, 221,
  95, 222,
  95, 226,
  95, 227,
  95, 229,
  95, 230,
  95, 232,
  95, 240,
  95, 242,
  95, 244,
  95, 246,
  95, 248,
  95, 249,
  95, 251,
  95, 254,
  95, 257,
  95, 258,
  95, 259,
  95, 262,
  95, 263,
  95, 264,
  95, 265,
  95, 267,
  95, 268,
  95, 270,
  95, 272,
  95, 273,
  95, 274,
  95, 278,
  95, 280,
  95, 281,
  95, 283,
  95, 285,
  95, 286,
  95, 288,
  95, 290,
  95, 291,
  95, 293,
  95, 295,
  95, 296,
  95, 300,
  95, 303,
  95, 305,
  95, 306,
  95, 310,
  95, 317,
  95, 318,
  95, 319,
  95, 323,
  95, 325,
  95, 326,
  95, 327,
  95, 328,
  95, 329,
  95, 332,
  95, 334,
  95, 341,
  95, 343,
  95, 346,
  95, 347,
  95, 350,
  95, 352,
  95, 353,
  95, 354,
  95, 355,
  95, 356,
  95, 358,
  95, 360,
  95, 361,
  95, 363,
  95, 364,
  95, 367,
  95, 369,
  95, 370,
  95, 372,
  95, 373,
  95, 374,
  95, 375,
  95, 376,
  95, 379,
  95, 380,
  95, 382,
  95, 383,
  95, 385,
  95, 387,
  95, 392,
  95, 393,
  95, 395,
  95, 397,
  95, 398,
  95, 400,
  96, 97,
  96, 102,
  96, 105,
  96, 107,
  96, 109,
  96, 111,
  96, 113,
  96, 114,
  96, 116,
  96, 117,
  96, 118,
  96, 119,
  96, 123,
  96, 124,
  96, 125,
  96, 128,
  96, 133,
  96, 134,
  96, 136,
  96, 137,
  96, 138,
  96, 139,
  96, 140,
  96, 141,
  96, 143,
  96, 145,
  96, 147,
  96, 148,
  96, 149,
  96, 150,
  96, 151,
  96, 152,
  96, 153,
  96, 159,
  96, 160,
  96, 162,
  96, 164,
  96, 165,
  96, 166,
  96, 168,
  96, 172,
  96, 174,
  96, 181,
  96, 183,
  96, 185,
  96, 186,
  96, 187,
  96, 188,
  96, 191,
  96, 193,
  96, 194,
  96, 199,
  96, 201,
  96, 206,
  96, 207,
  96, 209,
  96, 210,
  96, 211,
  96, 214,
  96, 215,
  96, 217,
  96, 218,
  96, 219,
  96, 220,
  96, 222,
  96, 224,
  96, 229,
  96, 233,
  96, 236,
  96, 238,
  96, 239,
  96, 241,
  96, 242,
  96, 243,
  96, 244,
  96, 245,
  96, 246,
  96, 247,
  96, 249,
  96, 253,
  96, 256,
  96, 258,
  96, 259,
  96, 265,
  96, 266,
  96, 267,
  96, 270,
  96, 271,
  96, 275,
  96, 276,
  96, 278,
  96, 281,
  96, 282,
  96, 284,
  96, 286,
  96, 287,
  96, 289,
  96, 290,
  96, 293,
  96, 296,
  96, 297,
  96, 298,
  96, 299,
  96, 302,
  96, 304,
  96, 305,
  96, 306,
  96, 307,
  96, 308,
  96, 310,
  96, 311,
  96, 313,
  96, 315,
  96, 319,
  96, 321,
  96, 325,
  96, 328,
  96, 331,
  96, 332,
  96, 334,
  96, 335,
  96, 338,
  96, 345,
  96, 348,
  96, 350,
  96, 351,
  96, 356,
  96, 358,
  96, 359,
  96, 362,
  96, 363,
  96, 365,
  96, 369,
  96, 372,
  96, 373,
  96, 376,
  96, 380,
  96, 381,
  96, 382,
  96, 385,
  96, 387,
  96, 389,
  96, 390,
  96, 392,
  96, 393,
  96, 394,
  96, 395,
  96, 396,
  96, 397,
  96, 398,
  97, 99,
  97, 103,
  97, 105,
  97, 107,
  97, 108,
  97, 109,
  97, 111,
  97, 112,
  97, 113,
  97, 115,
  97, 116,
  97, 117,
  97, 119,
  97, 120,
  97, 126,
  97, 131,
  97, 132,
  97, 133,
  97, 134,
  97, 138,
  97, 140,
  97, 142,
  97, 145,
  97, 146,
  97, 148,
  97, 149,
  97, 150,
  97, 151,
  97, 153,
  97, 156,
  97, 158,
  97, 159,
  97, 160,
  97, 162,
  97, 166,
  97, 167,
  97, 168,
  97, 169,
  97, 170,
  97, 171,
  97, 174,
  97, 175,
  97, 177,
  97, 178,
  97, 179,
  97, 182,
  97, 184,
  97, 189,
  97, 193,
  97, 195,
  97, 197,
  97, 200,
  97, 201,
  97, 202,
  97, 203,
  97, 205,
  97, 209,
  97, 210,
  97, 211,
  97, 212,
  97, 213,
  97, 216,
  97, 218,
  97, 219,
  97, 220,
  97, 221,
  97, 222,
  97, 223,
  97, 224,
  97, 225,
  97, 226,
  97, 229,
  97, 231,
  97, 235,
  97, 237,
  97, 239,
  97, 240,
  97, 245,
  97, 247,
  97, 248,
  97, 250,
  97, 252,
  97, 254,
  97, 257,
  97, 262,
  97, 265,
  97, 266,
  97, 270,
  97, 273,
  97, 274,
  97, 277,
  97, 278,
  97, 281,
  97, 282,
  97, 286,
  97, 287,
  97, 291,
  97, 292,
  97, 294,
  97, 295,
  97, 297,
  97, 301,
  97, 302,
  97, 304,
  97, 305,
  97, 307,
  97, 308,
  97, 309,
  97, 310,
  97, 311,
  97, 314,
  97, 315,
  97, 316,
  97, 317,
  97, 320,
  97, 325,
  97, 330,
  97, 334,
  97, 335,
  97, 336,
  97, 338,
  97, 340,
  97, 341,
  97, 344,
  97, 346,
  97, 349,
  97, 350,
  97, 354,
  97, 355,
  97, 357,
  97, 358,
  97, 359,
  97, 360,
  97, 362,
  97, 363,
  97, 364,
  97, 366,
  97, 369,
  97, 370,
  97, 373,
  97, 374,
  97, 376,
  97, 377,
  97, 378,
  97, 381,
  97, 382,
  97, 387,
  97, 388,
  97, 389,
  97, 390,
  97, 391,
  97, 393,
  97, 394,
  97, 397,
  97, 399,
  97, 400,
  98, 100,
  98, 101,
  98, 102,
  98, 103,
  98, 104,
  98, 105,
  98, 109,
  98, 111,
  98, 114,
  98, 115,
  98, 116,
  98, 117,
  98, 118,
  98, 119,
  98, 121,
  98, 123,
  98, 124,
  98, 125,
  98, 129,
  98, 130,
  98, 131,
  98, 133,
  98, 134,
  98, 135,
  98, 138,
  98, 140,
  98, 142,
  98, 143,
  98, 145,
  98, 146,
  98, 149,
  98, 152,
  98, 154,
  98, 158,
  98, 161,
  98, 165,
  98, 166,
  98, 167,
  98, 170,
  98, 171,
  98, 172,
  98, 174,
  98, 178,
  98, 179,
  98, 180,
  98, 184,
  98, 186,
  98, 187,
  98, 189,
  98, 190,
  98, 193,
  98, 195,
  98, 196,
  98, 197,
  98, 201,
  98, 202,
  98, 204,
  98, 206,
  98, 207,
  98, 209,
  98, 211,
  98, 212,
  98, 213,
  98, 215,
  98, 218,
  98, 219,
  98, 221,
  98, 222,
  98, 225,
  98, 227,
  98, 231,
  98, 232,
  98, 233,
  98, 236,
  98, 237,
  98, 238,
  98, 239,
  98, 240,
  98, 244,
  98, 245,
  98, 246,
  98, 247,
  98, 249,
  98, 251,
  98, 252,
  98, 253,
  98, 254,
  98, 256,
  98, 257,
  98, 258,
  98, 260,
  98, 263,
  98, 266,
  98, 269,
  98, 270,
  98, 273,
  98, 275,
  98, 276,
  98, 277,
  98, 278,
  98, 280,
  98, 281,
  98, 282,
  98, 285,
  98, 286,
  98, 287,
  98, 288,
  98, 289,
  98, 290,
  98, 291,
  98, 293,
  98, 294,
  98, 295,
  98, 296,
  98, 297,
  98, 300,
  98, 301,
  98, 304,
  98, 305,
  98, 308,
  98, 309,
  98, 313,
  98, 315,
  98, 322,
  98, 324,
  98, 327,
  98, 329,
  98, 330,
  98, 334,
  98, 335,
  98, 339,
  98, 340,
  98, 341,
  98, 343,
  98, 344,
  98, 346,
  98, 348,
  98, 349,
  98, 352,
  98, 354,
  98, 355,
  98, 357,
  98, 358,
  98, 360,
  98, 363,
  98, 365,
  98, 370,
  98, 372,
  98, 377,
  98, 378,
  98, 380,
  98, 381,
  98, 382,
  98, 383,
  98, 384,
  98, 385,
  98, 388,
  98, 390,
  98, 391,
  98, 392,
  98, 393,
  98, 395,
  98, 396,
  98, 398,
  98, 399,
  98, 400,
  99, 101,
  99, 102,
  99, 104,
  99, 106,
  99, 114,
  99, 115,
  99, 116,
  99, 118,
  99, 122,
  99, 124,
  99, 126,
  99, 130,
  99, 131,
  99, 132,
  99, 134,
  99, 136,
  99, 138,
  99, 140,
  99, 141,
  99, 144,
  99, 147,
  99, 148,
  99, 149,
  99, 151,
  99, 152,
  99, 153,
  99, 154,
  99, 157,
  99, 159,
  99, 161,
  99, 162,
  99, 165,
  99, 166,
  99, 168,
  99, 176,
  99, 178,
  99, 180,
  99, 183,
  99, 186,
  99, 187,
  99, 189,
  99, 191,
  99, 193,
  99, 194,
  99, 198,
  99, 199,
  99, 200,
  99, 201,
  99, 204,
  99, 205,
  99, 206,
  99, 211,
  99, 212,
  99, 214,
  99, 215,
  99, 216,
  99, 217,
  99, 218,
  99, 219,
  99, 220,
  99, 222,
  99, 224,
  99, 225,
  99, 226,
  99, 229,
  99, 232,
  99, 233,
  99, 237,
  99, 238,
  99, 240,
  99, 241,
  99, 253,
  99, 254,
  99, 255,
  99, 258,
  99, 261,
  99, 263,
  99, 265,
  99, 266,
  99, 268,
  99, 270,
  99, 275,
  99, 277,
  99, 278,
  99, 279,
  99, 280,
  99, 281,
  99, 282,
  99, 283,
  99, 286,
  99, 291,
  99, 293,
  99, 296,
  99, 297,
  99, 302,
  99, 303,
  99, 306,
  99, 309,
  99, 312,
  99, 314,
  99, 318,
  99, 320,
  99, 322,
  99, 324,
  99, 325,
  99, 326,
  99, 328,
  99, 329,
  99, 330,
  99, 333,
  99, 334,
  99, 335,
  99, 336,
  99, 337,
  99, 338,
  99, 339,
  99, 345,
  99, 347,
  99, 349,
  99, 350,
  99, 351,
  99, 352,
  99, 355,
  99, 358,
  99, 362,
  99, 363,
  99, 365,
  99, 373,
  99, 376,
  99, 377,
  99, 378,
  99, 379,
  99, 380,
  99, 382,
  99, 383,
  99, 385,
  99, 386,
  99, 387,
  99, 390,
  99, 396,
  99, 398,
  99, 400,
  100, 101,
  100, 102,
  100, 103,
  100, 104,
  100, 105,
  100, 108,
  100, 112,
  100, 114,
  100, 116,
  100, 122,
  100, 123,
  100, 124,
  100, 127,
  100, 128,
  100, 129,
  100, 130,
  100, 131,
  100, 132,
  100, 133,
  100, 134,
  100, 137,
  100, 138,
  100, 139,
  100, 141,
  100, 145,
  100, 146,
  100, 151,
  100, 154,
  100, 155,
  100, 156,
  100, 157,
  100, 158,
  100, 160,
  100, 161,
  100, 162,
  100, 169,
  100, 174,
  100, 175,
  100, 176,
  100, 177,
  100, 179,
  100, 181,
  100, 182,
  100, 185,
  100, 186,
  100, 187,
  100, 188,
  100, 190,
  100, 192,
  100, 195,
  100, 196,
  100, 197,
  100, 200,
  100, 202,
  100, 203,
  100, 204,
  100, 205,
  100, 206,
  100, 209,
  100, 210,
  100, 212,
  100, 213,
  100, 214,
  100, 215,
  100, 216,
  100, 223,
  100, 225,
  100, 229,
  100, 233,
  100, 236,
  100, 238,
  100, 240,
  100, 242,
  100, 247,
  100, 249,
  100, 251,
  100, 252,
  100, 253,
  100, 254,
  100, 255,
  100, 256,
  100, 259,
  100, 262,
  100, 263,
  100, 266,
  100, 269,
  100, 270,
  100, 271,
  100, 273,
  100, 275,
  100, 276,
  100, 277,
  100, 283,
  100, 285,
  100, 289,
  100, 291,
  100, 293,
  100, 297,
  100, 299,
  100, 300,
  100, 301,
  100, 305,
  100, 307,
  100, 311,
  100, 312,
  100, 314,
  100, 315,
  100, 319,
  100, 320,
  100, 322,
  100, 324,
  100, 326,
  100, 327,
  100, 328,
  100, 329,
  100, 330,
  100, 331,
  100, 334,
  100, 337,
  100, 338,
  100, 339,
  100, 341,
  100, 343,
  100, 345,
  100, 347,
  100, 356,
  100, 358,
  100, 359,
  100, 361,
  100, 362,
  100, 365,
  100, 366,
  100, 367,
  100, 368,
  100, 369,
  100, 371,
  100, 376,
  100, 377,
  100, 381,
  100, 382,
  100, 383,
  100, 385,
  100, 388,
  100, 389,
  100, 390,
  100, 392,
  100, 399,
  100, 400,
  101, 104,
  101, 106,
  101, 108,
  101, 109,
  101, 111,
  101, 114,
  101, 116,
  101, 119,
  101, 120,
  101, 125,
  101, 128,
  101, 135,
  101, 137,
  101, 139,
  101, 142,
  101, 144,
  101, 147,
  101, 148,
  101, 153,
  101, 154,
  101, 155,
  101, 156,
  101, 157,
  101, 159,
  101, 160,
  101, 164,
  101, 167,
  101, 168,
  101, 169,
  101, 170,
  101, 171,
  101, 172,
  101, 173,
  101, 178,
  101, 179,
  101, 180,
  101, 181,
  101, 182,
  101, 184,
  101, 186,
  101, 187,
  101, 189,
  101, 191,
  101, 192,
  101, 193,
  101, 194,
  101, 199,
  101, 200,
  101, 202,
  101, 204,
  101, 205,
  101, 207,
  101, 213,
  101, 215,
  101, 217,
  101, 222,
  101, 225,
  101, 226,
  101, 228,
  101, 231,
  101, 241,
  101, 242,
  101, 246,
  101, 247,
  101, 248,
  101, 249,
  101, 250,
  101, 252,
  101, 253,
  101, 257,
  101, 258,
  101, 262,
  101, 263,
  101, 264,
  101, 265,
  101, 268,
  101, 270,
  101, 271,
  101, 272,
  101, 273,
  101, 275,
  101, 276,
  101, 278,
  101, 282,
  101, 283,
  101, 284,
  101, 287,
  101, 288,
  101, 292,
  101, 296,
  101, 299,
  101, 300,
  101, 301,
  101, 302,
  101, 304,
  101, 309,
  101, 313,
  101, 314,
  101, 318,
  101, 320,
  101, 323,
  101, 325,
  101, 326,
  101, 327,
  101, 328,
  101, 330,
  101, 331,
  101, 335,
  101, 336,
  101, 338,
  101, 339,
  101, 340,
  101, 343,
  101, 344,
  101, 347,
  101, 348,
  101, 351,
  101, 354,
  101, 357,
  101, 358,
  101, 360,
  101, 361,
  101, 364,
  101, 367,
  101, 368,
  101, 369,
  101, 370,
  101, 371,
  101, 374,
  101, 375,
  101, 378,
  101, 386,
  101, 387,
  101, 388,
  101, 389,
  101, 390,
  101, 392,
  101, 394,
  101, 395,
  101, 397,
  102, 104,
  102, 105,
  102, 106,
  102, 107,
  102, 108,
  102, 109,
  102, 113,
  102, 115,
  102, 117,
  102, 119,
  102, 121,
  102, 122,
  102, 125,
  102, 126,
  102, 130,
  102, 131,
  102, 134,
  102, 135,
  102, 137,
  102, 138,
  102, 140,
  102, 144,
  102, 148,
  102, 149,
  102, 150,
  102, 151,
  102, 152,
  102, 153,
  102, 154,
  102, 155,
  102, 164,
  102, 167,
  102, 169,
  102, 170,
  102, 175,
  102, 176,
  102, 177,
  102, 178,
  102, 179,
  102, 180,
  102, 181,
  102, 184,
  102, 186,
  102, 187,
  102, 189,
  102, 190,
  102, 191,
  102, 194,
  102, 195,
  102, 196,
  102, 198,
  102, 200,
  102, 202,
  102, 204,
  102, 205,
  102, 210,
  102, 212,
  102, 213,
  102, 214,
  102, 215,
  102, 216,
  102, 219,
  102, 220,
  102, 223,
  102, 231,
  102, 234,
  102, 235,
  102, 237,
  102, 238,
  102, 239,
  102, 241,
  102, 242,
  102, 245,
  102, 255,
  102, 256,
  102, 258,
  102, 259,
  102, 260,
  102, 265,
  102, 266,
  102, 270,
  102, 271,
  102, 272,
  102, 273,
  102, 275,
  102, 277,
  102, 279,
  102, 280,
  102, 281,
  102, 282,
  102, 284,
  102, 286,
  102, 289,
  102, 290,
  102, 292,
  102, 293,
  102, 298,
  102, 303,
  102, 306,
  102, 307,
  102, 308,
  102, 309,
  102, 310,
  102, 313,
  102, 316,
  102, 319,
  102, 320,
  102, 322,
  102, 324,
  102, 326,
  102, 329,
  102, 330,
  102, 331,
  102, 333,
  102, 335,
  102, 338,
  102, 342,
  102, 343,
  102, 344,
  102, 346,
  102, 347,
  102, 348,
  102, 349,
  102, 359,
  102, 360,
  102, 361,
  102, 365,
  102, 368,
  102, 373,
  102, 374,
  102, 375,
  102, 376,
  102, 377,
  102, 378,
  102, 379,
  102, 382,
  102, 385,
  102, 387,
  102, 388,
  102, 391,
  102, 392,
  102, 393,
  102, 395,
  102, 397,
  102, 398,
  103, 105,
  103, 107,
  103, 108,
  103, 110,
  103, 112,
  103, 113,
  103, 115,
  103, 116,
  103, 118,
  103, 121,
  103, 123,
  103, 124,
  103, 126,
  103, 129,
  103, 133,
  103, 134,
  103, 136,
  103, 138,
  103, 139,
  103, 140,
  103, 141,
  103, 142,
  103, 143,
  103, 144,
  103, 149,
  103, 150,
  103, 152,
  103, 153,
  103, 154,
  103, 155,
  103, 160,
  103, 161,
  103, 162,
  103, 164,
  103, 165,
  103, 168,
  103, 169,
  103, 171,
  103, 175,
  103, 178,
  103, 179,
  103, 180,
  103, 182,
  103, 183,
  103, 186,
  103, 188,
  103, 189,
  103, 191,
  103, 195,
  103, 196,
  103, 200,
  103, 202,
  103, 203,
  103, 206,
  103, 207,
  103, 211,
  103, 212,
  103, 214,
  103, 216,
  103, 217,
  103, 218,
  103, 221,
  103, 222,
  103, 223,
  103, 224,
  103, 227,
  103, 229,
  103, 230,
  103, 231,
  103, 232,
  103, 233,
  103, 237,
  103, 238,
  103, 241,
  103, 243,
  103, 244,
  103, 245,
  103, 246,
  103, 247,
  103, 249,
  103, 250,
  103, 251,
  103, 252,
  103, 253,
  103, 256,
  103, 261,
  103, 262,
  103, 264,
  103, 265,
  103, 266,
  103, 270,
  103, 273,
  103, 276,
  103, 280,
  103, 281,
  103, 282,
  103, 288,
  103, 289,
  103, 290,
  103, 292,
  103, 296,
  103, 297,
  103, 301,
  103, 302,
  103, 304,
  103, 305,
  103, 306,
  103, 308,
  103, 309,
  103, 310,
  103, 311,
  103, 314,
  103, 315,
  103, 317,
  103, 319,
  103, 321,
  103, 326,
  103, 327,
  103, 328,
  103, 329,
  103, 330,
  103, 331,
  103, 332,
  103, 333,
  103, 335,
  103, 337,
  103, 338,
  103, 339,
  103, 340,
  103, 342,
  103, 344,
  103, 350,
  103, 351,
  103, 352,
  103, 353,
  103, 355,
  103, 356,
  103, 357,
  103, 358,
  103, 360,
  103, 362,
  103, 363,
  103, 364,
  103, 365,
  103, 368,
  103, 369,
  103, 370,
  103, 371,
  103, 372,
  103, 373,
  103, 380,
  103, 381,
  103, 382,
  103, 383,
  103, 384,
  103, 385,
  103, 388,
  103, 395,
  103, 396,
  103, 397,
  103, 398,
  103, 399,
  103, 400,
  104, 109,
  104, 110,
  104, 111,
  104, 114,
  104, 118,
  104, 122,
  104, 123,
  104, 125,
  104, 128,
  104, 130,
  104, 131,
  104, 134,
  104, 136,
  104, 140,
  104, 141,
  104, 144,
  104, 145,
  104, 150,
  104, 152,
  104, 154,
  104, 155,
  104, 157,
  104, 158,
  104, 159,
  104, 161,
  104, 163,
  104, 164,
  104, 165,
  104, 166,
  104, 167,
  104, 168,
  104, 170,
  104, 171,
  104, 172,
  104, 173,
  104, 175,
  104, 177,
  104, 178,
  104, 179,
  104, 180,
  104, 182,
  104, 188,
  104, 189,
  104, 192,
  104, 194,
  104, 195,
  104, 200,
  104, 202,
  104, 205,
  104, 206,
  104, 207,
  104, 209,
  104, 210,
  104, 211,
  104, 212,
  104, 213,
  104, 215,
  104, 217,
  104, 218,
  104, 220,
  104, 221,
  104, 222,
  104, 223,
  104, 224,
  104, 226,
  104, 228,
  104, 229,
  104, 232,
  104, 235,
  104, 236,
  104, 237,
  104, 238,
  104, 240,
  104, 242,
  104, 243,
  104, 245,
  104, 247,
  104, 249,
  104, 250,
  104, 251,
  104, 252,
  104, 254,
  104, 255,
  104, 256,
  104, 257,
  104, 258,
  104, 259,
  104, 260,
  104, 262,
  104, 268,
  104, 271,
  104, 273,
  104, 274,
  104, 275,
  104, 276,
  104, 277,
  104, 279,
  104, 283,
  104, 285,
  104, 286,
  104, 288,
  104, 290,
  104, 292,
  104, 295,
  104, 296,
  104, 297,
  104, 299,
  104, 301,
  104, 302,
  104, 304,
  104, 307,
  104, 310,
  104, 311,
  104, 312,
  104, 314,
  104, 316,
  104, 320,
  104, 321,
  104, 323,
  104, 325,
  104, 326,
  104, 327,
  104, 328,
  104, 333,
  104, 334,
  104, 337,
  104, 338,
  104, 340,
  104, 342,
  104, 343,
  104, 348,
  104, 350,
  104, 353,
  104, 357,
  104, 360,
  104, 363,
  104, 365,
  104, 367,
  104, 368,
  104, 372,
  104, 373,
  104, 375,
  104, 376,
  104, 377,
  104, 378,
  104, 379,
  104, 380,
  104, 382,
  104, 384,
  104, 388,
  104, 389,
  104, 392,
  104, 397,
  104, 400,
  105, 106,
  105, 107,
  105, 111,
  105, 112,
  105, 121,
  105, 123,
  105, 124,
  105, 126,
  105, 127,
  105, 128,
  105, 129,
  105, 130,
  105, 131,
  105, 133,
  105, 134,
  105, 135,
  105, 136,
  105, 137,
  105, 138,
  105, 139,
  105, 140,
  105, 142,
  105, 143,
  105, 144,
  105, 145,
  105, 147,
  105, 151,
  105, 152,
  105, 154,
  105, 156,
  105, 158,
  105, 160,
  105, 166,
  105, 169,
  105, 174,
  105, 175,
  105, 177,
  105, 178,
  105, 179,
  105, 180,
  105, 183,
  105, 184,
  105, 185,
  105, 186,
  105, 189,
  105, 190,
  105, 191,
  105, 194,
  105, 195,
  105, 196,
  105, 202,
  105, 203,
  105, 206,
  105, 207,
  105, 208,
  105, 209,
  105, 210,
  105, 211,
  105, 213,
  105, 214,
  105, 220,
  105, 221,
  105, 222,
  105, 223,
  105, 225,
  105, 226,
  105, 228,
  105, 231,
  105, 234,
  105, 235,
  105, 236,
  105, 237,
  105, 238,
  105, 241,
  105, 242,
  105, 244,
  105, 246,
  105, 249,
  105, 250,
  105, 251,
  105, 252,
  105, 253,
  105, 254,
  105, 255,
  105, 256,
  105, 259,
  105, 261,
  105, 264,
  105, 266,
  105, 268,
  105, 271,
  105, 272,
  105, 275,
  105, 276,
  105, 277,
  105, 282,
  105, 283,
  105, 284,
  105, 285,
  105, 289,
  105, 290,
  105, 291,
  105, 292,
  105, 293,
  105, 294,
  105, 295,
  105, 296,
  105, 297,
  105, 301,
  105, 302,
  105, 305,
  105, 306,
  105, 308,
  105, 309,
  105, 311,
  105, 312,
  105, 313,
  105, 314,
  105, 317,
  105, 318,
  105, 319,
  105, 321,
  105, 324,
  105, 325,
  105, 331,
  105, 332,
  105, 333,
  105, 335,
  105, 337,
  105, 338,
  105, 340,
  105, 341,
  105, 343,
  105, 344,
  105, 345,
  105, 346,
  105, 350,
  105, 351,
  105, 355,
  105, 356,
  105, 360,
  105, 361,
  105, 363,
  105, 365,
  105, 366,
  105, 368,
  105, 369,
  105, 372,
  105, 373,
  105, 374,
  105, 377,
  105, 378,
  105, 383,
  105, 385,
  105, 388,
  105, 390,
  105, 391,
  105, 394,
  105, 395,
  105, 397,
  105, 399,
  106, 107,
  106, 108,
  106, 109,
  106, 110,
  106, 112,
  106, 113,
  106, 120,
  106, 122,
  106, 124,
  106, 125,
  106, 126,
  106, 127,
  106, 132,
  106, 133,
  106, 136,
  106, 137,
  106, 138,
  106, 140,
  106, 142,
  106, 144,
  106, 145,
  106, 146,
  106, 148,
  106, 149,
  106, 151,
  106, 154,
  106, 156,
  106, 157,
  106, 158,
  106, 159,
  106, 160,
  106, 163,
  106, 164,
  106, 165,
  106, 166,
  106, 168,
  106, 169,
  106, 174,
  106, 177,
  106, 181,
  106, 186,
  106, 187,
  106, 189,
  106, 193,
  106, 196,
  106, 197,
  106, 198,
  106, 199,
  106, 200,
  106, 205,
  106, 206,
  106, 207,
  106, 208,
  106, 209,
  106, 211,
  106, 215,
  106, 216,
  106, 217,
  106, 218,
  106, 219,
  106, 220,
  106, 223,
  106, 225,
  106, 226,
  106, 227,
  106, 228,
  106, 234,
  106, 236,
  106, 237,
  106, 238,
  106, 239,
  106, 240,
  106, 242,
  106, 243,
  106, 244,
  106, 247,
  106, 248,
  106, 249,
  106, 253,
  106, 254,
  106, 256,
  106, 257,
  106, 262,
  106, 263,
  106, 264,
  106, 266,
  106, 267,
  106, 269,
  106, 271,
  106, 272,
  106, 277,
  106, 278,
  106, 279,
  106, 280,
  106, 281,
  106, 283,
  106, 284,
  106, 286,
  106, 288,
  106, 290,
  106, 292,
  106, 294,
  106, 295,
  106, 298,
  106, 304,
  106, 306,
  106, 308,
  106, 309,
  106, 312,
  106, 314,
  106, 318,
  106, 320,
  106, 321,
  106, 325,
  106, 330,
  106, 331,
  106, 334,
  106, 336,
  106, 338,
  106, 342,
  106, 343,
  106, 345,
  106, 347,
  106, 348,
  106, 351,
  106, 352,
  106, 353,
  106, 355,
  106, 356,
  106, 358,
  106, 362,
  106, 363,
  106, 364,
  106, 366,
  106, 367,
  106, 368,
  106, 370,
  106, 371,
  106, 372,
  106, 373,
  106, 375,
  106, 377,
  106, 379,
  106, 380,
  106, 381,
  106, 384,
  106, 386,
  106, 387,
  106, 388,
  106, 389,
  106, 391,
  106, 395,
  106, 396,
  107, 111,
  107, 113,
  107, 116,
  107, 117,
  107, 118,
  107, 121,
  107, 123,
  107, 126,
  107, 127,
  107, 128,
  107, 131,
  107, 132,
  107, 134,
  107, 136,
  107, 142,
  107, 143,
  107, 144,
  107, 145,
  107, 146,
  107, 149,
  107, 151,
  107, 153,
  107, 155,
  107, 156,
  107, 160,
  107, 162,
  107, 163,
  107, 168,
  107, 170,
  107, 172,
  107, 173,
  107, 174,
  107, 178,
  107, 180,
  107, 181,
  107, 184,
  107, 185,
  107, 186,
  107, 189,
  107, 191,
  107, 192,
  107, 193,
  107, 197,
  107, 199,
  107, 201,
  107, 202,
  107, 203,
  107, 207,
  107, 208,
  107, 211,
  107, 213,
  107, 214,
  107, 216,
  107, 217,
  107, 218,
  107, 223,
  107, 225,
  107, 226,
  107, 227,
  107, 233,
  107, 236,
  107, 238,
  107, 246,
  107, 253,
  107, 254,
  107, 255,
  107, 256,
  107, 259,
  107, 261,
  107, 264,
  107, 265,
  107, 268,
  107, 273,
  107, 274,
  107, 276,
  107, 277,
  107, 278,
  107, 279,
  107, 280,
  107, 281,
  107, 282,
  107, 284,
  107, 285,
  107, 286,
  107, 289,
  107, 290,
  107, 292,
  107, 294,
  107, 298,
  107, 300,
  107, 303,
  107, 307,
  107, 309,
  107, 311,
  107, 316,
  107, 317,
  107, 318,
  107, 319,
  107, 320,
  107, 323,
  107, 324,
  107, 325,
  107, 330,
  107, 331,
  107, 332,
  107, 333,
  107, 335,
  107, 336,
  107, 337,
  107, 338,
  107, 340,
  107, 343,
  107, 345,
  107, 348,
  107, 349,
  107, 354,
  107, 355,
  107, 356,
  107, 357,
  107, 360,
  107, 363,
  107, 365,
  107, 366,
  107, 368,
  107, 371,
  107, 372,
  107, 374,
  107, 377,
  107, 379,
  107, 383,
  107, 385,
  107, 386,
  107, 387,
  107, 389,
  107, 392,
  107, 394,
  107, 399,
  107, 400,
  108, 112,
  108, 113,
  108, 115,
  108, 119,
  108, 122,
  108, 125,
  108, 126,
  108, 128,
  108, 131,
  108, 132,
  108, 136,
  108, 138,
  108, 139,
  108, 141,
  108, 142,
  108, 145,
  108, 147,
  108, 148,
  108, 149,
  108, 150,
  108, 152,
  108, 154,
  108, 155,
  108, 156,
  108, 157,
  108, 161,
  108, 164,
  108, 165,
  108, 170,
  108, 172,
  108, 173,
  108, 176,
  108, 178,
  108, 182,
  108, 185,
  108, 186,
  108, 187,
  108, 189,
  108, 191,
  108, 193,
  108, 201,
  108, 204,
  108, 207,
  108, 214,
  108, 216,
  108, 220,
  108, 222,
  108, 223,
  108, 224,
  108, 227,
  108, 228,
  108, 229,
  108, 230,
  108, 231,
  108, 233,
  108, 236,
  108, 238,
  108, 243,
  108, 244,
  108, 248,
  108, 250,
  108, 251,
  108, 252,
  108, 253,
  108, 255,
  108, 260,
  108, 261,
  108, 263,
  108, 266,
  108, 267,
  108, 268,
  108, 269,
  108, 270,
  108, 272,
  108, 273,
  108, 274,
  108, 275,
  108, 276,
  108, 278,
  108, 279,
  108, 281,
  108, 283,
  108, 285,
  108, 287,
  108, 288,
  108, 289,
  108, 292,
  108, 295,
  108, 296,
  108, 301,
  108, 302,
  108, 304,
  108, 306,
  108, 314,
  108, 315,
  108, 316,
  108, 317,
  108, 318,
  108, 320,
  108, 323,
  108, 326,
  108, 328,
  108, 330,
  108, 335,
  108, 337,
  108, 341,
  108, 342,
  108, 344,
  108, 348,
  108, 350,
  108, 352,
  108, 356,
  108, 359,
  108, 360,
  108, 361,
  108, 362,
  108, 363,
  108, 365,
  108, 367,
  108, 369,
  108, 375,
  108, 376,
  108, 378,
  108, 386,
  108, 389,
  108, 390,
  108, 392,
  108, 393,
  108, 397,
  108, 398,
  108, 400,
  109, 110,
  109, 112,
  109, 113,
  109, 115,
  109, 120,
  109, 122,
  109, 124,
  109, 125,
  109, 126,
  109, 128,
  109, 129,
  109, 130,
  109, 131,
  109, 133,
  109, 134,
  109, 136,
  109, 137,
  109, 139,
  109, 144,
  109, 147,
  109, 149,
  109, 151,
  109, 152,
  109, 153,
  109, 154,
  109, 159,
  109, 160,
  109, 163,
  109, 165,
  109, 166,
  109, 170,
  109, 171,
  109, 175,
  109, 176,
  109, 177,
  109, 178,
  109, 181,
  109, 182,
  109, 184,
  109, 186,
  109, 187,
  109, 188,
  109, 189,
  109, 193,
  109, 194,
  109, 195,
  109, 197,
  109, 198,
  109, 199,
  109, 200,
  109, 201,
  109, 203,
  109, 205,
  109, 206,
  109, 207,
  109, 208,
  109, 211,
  109, 212,
  109, 215,
  109, 216,
  109, 222,
  109, 224,
  109, 225,
  109, 226,
  109, 227,
  109, 228,
  109, 229,
  109, 230,
  109, 232,
  109, 233,
  109, 234,
  109, 235,
  109, 236,
  109, 237,
  109, 238,
  109, 239,
  109, 240,
  109, 244,
  109, 245,
  109, 249,
  109, 251,
  109, 256,
  109, 257,
  109, 259,
  109, 260,
  109, 261,
  109, 265,
  109, 266,
  109, 269,
  109, 271,
  109, 274,
  109, 276,
  109, 278,
  109, 279,
  109, 280,
  109, 281,
  109, 289,
  109, 291,
  109, 292,
  109, 293,
  109, 296,
  109, 297,
  109, 302,
  109, 303,
  109, 304,
  109, 305,
  109, 310,
  109, 313,
  109, 315,
  109, 316,
  109, 317,
  109, 318,
  109, 321,
  109, 322,
  109, 323,
  109, 324,
  109, 325,
  109, 326,
  109, 329,
  109, 331,
  109, 333,
  109, 334,
  109, 336,
  109, 337,
  109, 338,
  109, 341,
  109, 342,
  109, 343,
  109, 348,
  109, 350,
  109, 351,
  109, 353,
  109, 354,
  109, 357,
  109, 360,
  109, 361,
  109, 363,
  109, 364,
  109, 366,
  109, 368,
  109, 370,
  109, 371,
  109, 375,
  109, 377,
  109, 379,
  109, 380,
  109, 384,
  109, 388,
  109, 389,
  109, 390,
  109, 392,
  109, 393,
  109, 394,
  109, 395,
  109, 396,
  109, 399,
  109, 400,
  110, 111,
  110, 114,
  110, 116,
  110, 124,
  110, 125,
  110, 131,
  110, 132,
  110, 133,
  110, 143,
  110, 144,
  110, 148,
  110, 154,
  110, 155,
  110, 158,
  110, 159,
  110, 160,
  110, 161,
  110, 162,
  110, 163,
  110, 167,
  110, 168,
  110, 171,
  110, 173,
  110, 176,
  110, 177,
  110, 178,
  110, 179,
  110, 181,
  110, 182,
  110, 183,
  110, 184,
  110, 185,
  110, 189,
  110, 191,
  110, 194,
  110, 195,
  110, 196,
  110, 199,
  110, 201,
  110, 204,
  110, 206,
  110, 207,
  110, 208,
  110, 209,
  110, 211,
  110, 212,
  110, 218,
  110, 219,
  110, 221,
  110, 222,
  110, 225,
  110, 227,
  110, 228,
  110, 229,
  110, 236,
  110, 238,
  110, 239,
  110, 240,
  110, 241,
  110, 247,
  110, 248,
  110, 249,
  110, 250,
  110, 253,
  110, 255,
  110, 260,
  110, 261,
  110, 262,
  110, 263,
  110, 265,
  110, 267,
  110, 268,
  110, 269,
  110, 270,
  110, 272,
  110, 273,
  110, 276,
  110, 277,
  110, 279,
  110, 281,
  110, 282,
  110, 283,
  110, 285,
  110, 286,
  110, 287,
  110, 289,
  110, 290,
  110, 292,
  110, 293,
  110, 295,
  110, 298,
  110, 299,
  110, 303,
  110, 306,
  110, 307,
  110, 308,
  110, 310,
  110, 311,
  110, 312,
  110, 317,
  110, 319,
  110, 320,
  110, 321,
  110, 322,
  110, 323,
  110, 324,
  110, 325,
  110, 326,
  110, 327,
  110, 328,
  110, 330,
  110, 331,
  110, 332,
  110, 338,
  110, 341,
  110, 344,
  110, 347,
  110, 349,
  110, 350,
  110, 351,
  110, 352,
  110, 353,
  110, 355,
  110, 356,
  110, 358,
  110, 361,
  110, 366,
  110, 370,
  110, 371,
  110, 372,
  110, 373,
  110, 374,
  110, 375,
  110, 378,
  110, 381,
  110, 382,
  110, 383,
  110, 384,
  110, 385,
  110, 386,
  110, 387,
  110, 388,
  110, 391,
  110, 393,
  110, 394,
  110, 396,
  110, 398,
  110, 400,
  111, 112,
  111, 117,
  111, 119,
  111, 120,
  111, 123,
  111, 125,
  111, 126,
  111, 128,
  111, 130,
  111, 133,
  111, 137,
  111, 140,
  111, 142,
  111, 145,
  111, 150,
  111, 155,
  111, 156,
  111, 157,
  111, 158,
  111, 159,
  111, 160,
  111, 166,
  111, 168,
  111, 176,
  111, 177,
  111, 178,
  111, 179,
  111, 181,
  111, 183,
  111, 189,
  111, 191,
  111, 193,
  111, 194,
  111, 196,
  111, 199,
  111, 202,
  111, 208,
  111, 209,
  111, 210,
  111, 211,
  111, 213,
  111, 215,
  111, 217,
  111, 219,
  111, 220,
  111, 227,
  111, 229,
  111, 230,
  111, 231,
  111, 232,
  111, 234,
  111, 238,
  111, 242,
  111, 243,
  111, 247,
  111, 248,
  111, 249,
  111, 251,
  111, 253,
  111, 254,
  111, 255,
  111, 257,
  111, 258,
  111, 259,
  111, 260,
  111, 262,
  111, 267,
  111, 269,
  111, 270,
  111, 274,
  111, 276,
  111, 277,
  111, 278,
  111, 279,
  111, 280,
  111, 281,
  111, 283,
  111, 284,
  111, 285,
  111, 287,
  111, 288,
  111, 289,
  111, 292,
  111, 295,
  111, 296,
  111, 298,
  111, 299,
  111, 302,
  111, 303,
  111, 304,
  111, 309,
  111, 313,
  111, 314,
  111, 315,
  111, 317,
  111, 318,
  111, 319,
  111, 320,
  111, 322,
  111, 325,
  111, 326,
  111, 330,
  111, 334,
  111, 337,
  111, 341,
  111, 343,
  111, 344,
  111, 345,
  111, 348,
  111, 349,
  111, 352,
  111, 353,
  111, 354,
  111, 355,
  111, 357,
  111, 358,
  111, 359,
  111, 361,
  111, 362,
  111, 363,
  111, 365,
  111, 367,
  111, 368,
  111, 369,
  111, 371,
  111, 372,
  111, 373,
  111, 375,
  111, 377,
  111, 378,
  111, 380,
  111, 381,
  111, 382,
  111, 383,
  111, 384,
  111, 385,
  111, 386,
  111, 387,
  111, 388,
  111, 389,
  111, 392,
  111, 394,
  111, 395,
  111, 396,
  111, 400,
  112, 116,
  112, 117,
  112, 120,
  112, 121,
  112, 123,
  112, 125,
  112, 127,
  112, 130,
  112, 131,
  112, 135,
  112, 138,
  112, 139,
  112, 140,
  112, 143,
  112, 144,
  112, 145,
  112, 146,
  112, 147,
  112, 148,
  112, 149,
  112, 150,
  112, 151,
  112, 154,
  112, 156,
  112, 160,
  112, 161,
  112, 163,
  112, 165,
  112, 168,
  112, 169,
  112, 174,
  112, 178,
  112, 179,
  112, 180,
  112, 182,
  112, 186,
  112, 187,
  112, 188,
  112, 189,
  112, 192,
  112, 195,
  112, 201,
  112, 204,
  112, 205,
  112, 206,
  112, 209,
  112, 211,
  112, 213,
  112, 214,
  112, 215,
  112, 216,
  112, 218,
  112, 219,
  112, 221,
  112, 222,
  112, 223,
  112, 224,
  112, 226,
  112, 227,
  112, 232,
  112, 233,
  112, 236,
  112, 237,
  112, 240,
  112, 243,
  112, 245,
  112, 246,
  112, 250,
  112, 253,
  112, 255,
  112, 260,
  112, 262,
  112, 263,
  112, 264,
  112, 265,
  112, 266,
  112, 267,
  112, 268,
  112, 269,
  112, 275,
  112, 277,
  112, 281,
  112, 283,
  112, 284,
  112, 286,
  112, 287,
  112, 288,
  112, 289,
  112, 290,
  112, 292,
  112, 293,
  112, 294,
  112, 295,
  112, 296,
  112, 298,
  112, 299,
  112, 300,
  112, 301,
  112, 302,
  112, 303,
  112, 307,
  112, 309,
  112, 311,
  112, 313,
  112, 315,
  112, 316,
  112, 317,
  112, 318,
  112, 319,
  112, 324,
  112, 325,
  112, 326,
  112, 327,
  112, 328,
  112, 333,
  112, 334,
  112, 336,
  112, 337,
  112, 339,
  112, 343,
  112, 345,
  112, 346,
  112, 347,
  112, 348,
  112, 349,
  112, 350,
  112, 352,
  112, 353,
  112, 354,
  112, 355,
  112, 356,
  112, 357,
  112, 358,
  112, 360,
  112, 363,
  112, 365,
  112, 366,
  112, 367,
  112, 371,
  112, 373,
  112, 377,
  112, 381,
  112, 382,
  112, 383,
  112, 384,
  112, 388,
  112, 390,
  112, 394,
  112, 396,
  112, 399,
  112, 400,
  113, 115,
  113, 116,
  113, 117,
  113, 123,
  113, 128,
  113, 129,
  113, 133,
  113, 134,
  113, 137,
  113, 138,
  113, 142,
  113, 144,
  113, 150,
  113, 151,
  113, 152,
  113, 153,
  113, 154,
  113, 157,
  113, 162,
  113, 163,
  113, 164,
  113, 165,
  113, 166,
  113, 167,
  113, 171,
  113, 173,
  113, 174,
  113, 175,
  113, 180,
  113, 183,
  113, 184,
  113, 186,
  113, 188,
  113, 189,
  113, 194,
  113, 195,
  113, 196,
  113, 198,
  113, 201,
  113, 207,
  113, 213,
  113, 216,
  113, 217,
  113, 218,
  113, 220,
  113, 225,
  113, 227,
  113, 230,
  113, 233,
  113, 234,
  113, 235,
  113, 238,
  113, 246,
  113, 247,
  113, 248,
  113, 250,
  113, 251,
  113, 253,
  113, 254,
  113, 259,
  113, 260,
  113, 261,
  113, 265,
  113, 266,
  113, 267,
  113, 269,
  113, 270,
  113, 271,
  113, 273,
  113, 275,
  113, 278,
  113, 279,
  113, 280,
  113, 281,
  113, 284,
  113, 285,
  113, 286,
  113, 288,
  113, 290,
  113, 291,
  113, 292,
  113, 294,
  113, 297,
  113, 298,
  113, 300,
  113, 301,
  113, 302,
  113, 303,
  113, 306,
  113, 308,
  113, 309,
  113, 310,
  113, 311,
  113, 313,
  113, 315,
  113, 316,
  113, 319,
  113, 322,
  113, 326,
  113, 328,
  113, 331,
  113, 334,
  113, 336,
  113, 337,
  113, 338,
  113, 339,
  113, 342,
  113, 343,
  113, 346,
  113, 348,
  113, 349,
  113, 351,
  113, 353,
  113, 357,
  113, 358,
  113, 361,
  113, 363,
  113, 367,
  113, 368,
  113, 370,
  113, 372,
  113, 374,
  113, 377,
  113, 380,
  113, 382,
  113, 383,
  113, 385,
  113, 386,
  113, 387,
  113, 388,
  113, 389,
  113, 390,
  113, 393,
  113, 395,
  113, 397,
  113, 400,
  114, 117,
  114, 118,
  114, 119,
  114, 120,
  114, 122,
  114, 125,
  114, 126,
  114, 128,
  114, 135,
  114, 136,
  114, 137,
  114, 139,
  114, 145,
  114, 146,
  114, 154,
  114, 155,
  114, 156,
  114, 158,
  114, 159,
  114, 160,
  114, 165,
  114, 167,
  114, 170,
  114, 171,
  114, 174,
  114, 179,
  114, 180,
  114, 182,
  114, 183,
  114, 185,
  114, 187,
  114, 190,
  114, 191,
  114, 193,
  114, 195,
  114, 199,
  114, 200,
  114, 201,
  114, 203,
  114, 205,
  114, 210,
  114, 211,
  114, 214,
  114, 217,
  114, 222,
  114, 223,
  114, 225,
  114, 226,
  114, 230,
  114, 233,
  114, 234,
  114, 235,
  114, 237,
  114, 238,
  114, 239,
  114, 242,
  114, 246,
  114, 249,
  114, 251,
  114, 254,
  114, 259,
  114, 262,
  114, 263,
  114, 264,
  114, 266,
  114, 268,
  114, 274,
  114, 275,
  114, 278,
  114, 279,
  114, 282,
  114, 286,
  114, 289,
  114, 291,
  114, 293,
  114, 295,
  114, 297,
  114, 298,
  114, 299,
  114, 302,
  114, 303,
  114, 304,
  114, 305,
  114, 306,
  114, 307,
  114, 309,
  114, 310,
  114, 312,
  114, 314,
  114, 317,
  114, 319,
  114, 320,
  114, 321,
  114, 322,
  114, 327,
  114, 328,
  114, 331,
  114, 333,
  114, 334,
  114, 335,
  114, 337,
  114, 339,
  114, 340,
  114, 343,
  114, 344,
  114, 346,
  114, 348,
  114, 349,
  114, 350,
  114, 351,
  114, 353,
  114, 354,
  114, 358,
  114, 360,
  114, 362,
  114, 363,
  114, 364,
  114, 365,
  114, 366,
  114, 367,
  114, 369,
  114, 372,
  114, 373,
  114, 374,
  114, 377,
  114, 383,
  114, 386,
  114, 387,
  114, 391,
  114, 392,
  114, 394,
  114, 397,
  114, 398,
  114, 399,
  114, 400,
  115, 116,
  115, 117,
  115, 120,
  115, 123,
  115, 124,
  115, 125,
  115, 127,
  115, 128,
  115, 129,
  115, 131,
  115, 132,
  115, 133,
  115, 136,
  115, 138,
  115, 139,
  115, 144,
  115, 148,
  115, 149,
  115, 157,
  115, 159,
  115, 160,
  115, 162,
  115, 163,
  115, 167,
  115, 168,
  115, 169,
  115, 175,
  115, 176,
  115, 180,
  115, 182,
  115, 184,
  115, 185,
  115, 191,
  115, 194,
  115, 196,
  115, 199,
  115, 200,
  115, 203,
  115, 204,
  115, 205,
  115, 208,
  115, 214,
  115, 216,
  115, 217,
  115, 218,
  115, 219,
  115, 220,
  115, 223,
  115, 224,
  115, 228,
  115, 229,
  115, 230,
  115, 233,
  115, 235,
  115, 237,
  115, 241,
  115, 242,
  115, 245,
  115, 248,
  115, 249,
  115, 250,
  115, 252,
  115, 254,
  115, 255,
  115, 256,
  115, 257,
  115, 260,
  115, 261,
  115, 262,
  115, 264,
  115, 268,
  115, 269,
  115, 270,
  115, 271,
  115, 272,
  115, 273,
  115, 275,
  115, 276,
  115, 278,
  115, 280,
  115, 283,
  115, 284,
  115, 286,
  115, 289,
  115, 290,
  115, 291,
  115, 296,
  115, 299,
  115, 303,
  115, 304,
  115, 305,
  115, 306,
  115, 307,
  115, 309,
  115, 311,
  115, 312,
  115, 315,
  115, 316,
  115, 318,
  115, 322,
  115, 323,
  115, 324,
  115, 326,
  115, 330,
  115, 332,
  115, 333,
  115, 334,
  115, 336,
  115, 339,
  115, 341,
  115, 342,
  115, 345,
  115, 347,
  115, 348,
  115, 349,
  115, 350,
  115, 352,
  115, 355,
  115, 356,
  115, 359,
  115, 360,
  115, 361,
  115, 362,
  115, 365,
  115, 366,
  115, 367,
  115, 369,
  115, 370,
  115, 372,
  115, 375,
  115, 376,
  115, 378,
  115, 384,
  115, 387,
  115, 388,
  115, 391,
  115, 394,
  115, 395,
  115, 396,
  115, 397,
  115, 399,
  115, 400,
  116, 119,
  116, 120,
  116, 123,
  116, 124,
  116, 126,
  116, 127,
  116, 130,
  116, 135,
  116, 139,
  116, 144,
  116, 145,
  116, 146,
  116, 147,
  116, 148,
  116, 150,
  116, 151,
  116, 152,
  116, 153,
  116, 158,
  116, 159,
  116, 162,
  116, 164,
  116, 165,
  116, 166,
  116, 169,
  116, 171,
  116, 172,
  116, 173,
  116, 174,
  116, 175,
  116, 176,
  116, 177,
  116, 178,
  116, 179,
  116, 180,
  116, 182,
  116, 183,
  116, 185,
  116, 186,
  116, 188,
  116, 192,
  116, 193,
  116, 194,
  116, 196,
  116, 199,
  116, 201,
  116, 202,
  116, 203,
  116, 204,
  116, 206,
  116, 210,
  116, 214,
  116, 215,
  116, 219,
  116, 220,
  116, 224,
  116, 226,
  116, 228,
  116, 230,
  116, 231,
  116, 234,
  116, 235,
  116, 238,
  116, 239,
  116, 242,
  116, 243,
  116, 248,
  116, 249,
  116, 250,
  116, 251,
  116, 253,
  116, 254,
  116, 255,
  116, 257,
  116, 258,
  116, 259,
  116, 262,
  116, 263,
  116, 264,
  116, 266,
  116, 274,
  116, 275,
  116, 277,
  116, 278,
  116, 279,
  116, 281,
  116, 282,
  116, 284,
  116, 292,
  116, 293,
  116, 294,
  116, 297,
  116, 298,
  116, 299,
  116, 302,
  116, 305,
  116, 306,
  116, 308,
  116, 312,
  116, 315,
  116, 317,
  116, 318,
  116, 319,
  116, 321,
  116, 323,
  116, 328,
  116, 329,
  116, 330,
  116, 334,
  116, 335,
  116, 339,
  116, 343,
  116, 345,
  116, 346,
  116, 347,
  116, 349,
  116, 354,
  116, 355,
  116, 357,
  116, 359,
  116, 364,
  116, 369,
  116, 370,
  116, 371,
  116, 375,
  116, 379,
  116, 381,
  116, 385,
  116, 387,
  116, 388,
  116, 390,
  116, 393,
  116, 394,
  116, 395,
  116, 396,
  116, 399,
  116, 400,
  117, 118,
  117, 121,
  117, 122,
  117, 123,
  117, 130,
  117, 132,
  117, 134,
  117, 135,
  117, 136,
  117, 138,
  117, 139,
  117, 141,
  117, 143,
  117, 145,
  117, 146,
  117, 147,
  117, 148,
  117, 150,
  117, 151,
  117, 156,
  117, 158,
  117, 161,
  117, 162,
  117, 163,
  117, 164,
  117, 166,
  117, 168,
  117, 174,
  117, 175,
  117, 178,
  117, 181,
  117, 184,
  117, 185,
  117, 186,
  117, 189,
  117, 190,
  117, 191,
  117, 192,
  117, 194,
  117, 195,
  117, 198,
  117, 200,
  117, 203,
  117, 205,
  117, 206,
  117, 208,
  117, 211,
  117, 212,
  117, 215,
  117, 216,
  117, 217,
  117, 218,
  117, 221,
  117, 222,
  117, 225,
  117, 226,
  117, 227,
  117, 228,
  117, 232,
  117, 235,
  117, 236,
  117, 237,
  117, 239,
  117, 240,
  117, 243,
  117, 245,
  117, 248,
  117, 249,
  117, 250,
  117, 252,
  117, 253,
  117, 254,
  117, 257,
  117, 259,
  117, 260,
  117, 264,
  117, 266,
  117, 268,
  117, 269,
  117, 270,
  117, 271,
  117, 272,
  117, 273,
  117, 274,
  117, 275,
  117, 276,
  117, 282,
  117, 283,
  117, 285,
  117, 287,
  117, 288,
  117, 289,
  117, 291,
  117, 292,
  117, 293,
  117, 295,
  117, 296,
  117, 298,
  117, 299,
  117, 301,
  117, 302,
  117, 304,
  117, 305,
  117, 306,
  117, 307,
  117, 309,
  117, 310,
  117, 311,
  117, 314,
  117, 316,
  117, 318,
  117, 319,
  117, 321,
  117, 323,
  117, 324,
  117, 327,
  117, 328,
  117, 330,
  117, 331,
  117, 332,
  117, 336,
  117, 337,
  117, 339,
  117, 341,
  117, 345,
  117, 349,
  117, 351,
  117, 352,
  117, 354,
  117, 355,
  117, 357,
  117, 359,
  117, 360,
  117, 361,
  117, 363,
  117, 365,
  117, 366,
  117, 369,
  117, 371,
  117, 372,
  117, 373,
  117, 375,
  117, 378,
  117, 379,
  117, 380,
  117, 381,
  117, 383,
  117, 385,
  117, 386,
  117, 387,
  117, 388,
  117, 389,
  117, 390,
  117, 399,
  118, 122,
  118, 123,
  118, 124,
  118, 126,
  118, 130,
  118, 133,
  118, 135,
  118, 140,
  118, 142,
  118, 145,
  118, 147,
  118, 148,
  118, 153,
  118, 155,
  118, 156,
  118, 157,
  118, 159,
  118, 160,
  118, 164,
  118, 166,
  118, 167,
  118, 168,
  118, 169,
  118, 174,
  118, 176,
  118, 178,
  118, 182,
  118, 183,
  118, 184,
  118, 185,
  118, 188,
  118, 189,
  118, 190,
  118, 192,
  118, 194,
  118, 197,
  118, 201,
  118, 205,
  118, 207,
  118, 209,
  118, 210,
  118, 211,
  118, 213,
  118, 215,
  118, 217,
  118, 221,
  118, 222,
  118, 223,
  118, 224,
  118, 226,
  118, 227,
  118, 229,
  118, 230,
  118, 232,
  118, 233,
  118, 234,
  118, 235,
  118, 237,
  118, 239,
  118, 240,
  118, 241,
  118, 242,
  118, 244,
  118, 245,
  118, 247,
  118, 250,
  118, 254,
  118, 256,
  118, 257,
  118, 258,
  118, 260,
  118, 262,
  118, 263,
  118, 264,
  118, 266,
  118, 267,
  118, 269,
  118, 271,
  118, 272,
  118, 277,
  118, 278,
  118, 279,
  118, 280,
  118, 285,
  118, 286,
  118, 287,
  118, 288,
  118, 290,
  118, 296,
  118, 297,
  118, 298,
  118, 299,
  118, 300,
  118, 301,
  118, 310,
  118, 314,
  118, 315,
  118, 316,
  118, 317,
  118, 319,
  118, 321,
  118, 324,
  118, 325,
  118, 326,
  118, 329,
  118, 330,
  118, 334,
  118, 335,
  118, 336,
  118, 338,
  118, 339,
  118, 340,
  118, 341,
  118, 343,
  118, 344,
  118, 350,
  118, 352,
  118, 354,
  118, 356,
  118, 360,
  118, 362,
  118, 364,
  118, 365,
  118, 366,
  118, 367,
  118, 369,
  118, 371,
  118, 375,
  118, 379,
  118, 380,
  118, 381,
  118, 382,
  118, 383,
  118, 384,
  118, 386,
  118, 388,
  118, 390,
  118, 391,
  118, 393,
  118, 394,
  118, 397,
  118, 398,
  119, 123,
  119, 126,
  119, 127,
  119, 130,
  119, 131,
  119, 132,
  119, 136,
  119, 138,
  119, 140,
  119, 142,
  119, 145,
  119, 146,
  119, 147,
  119, 148,
  119, 149,
  119, 153,
  119, 154,
  119, 155,
  119, 157,
  119, 160,
  119, 162,
  119, 163,
  119, 167,
  119, 169,
  119, 177,
  119, 178,
  119, 179,
  119, 182,
  119, 184,
  119, 190,
  119, 191,
  119, 192,
  119, 193,
  119, 194,
  119, 195,
  119, 197,
  119, 198,
  119, 202,
  119, 203,
  119, 206,
  119, 213,
  119, 215,
  119, 217,
  119, 218,
  119, 219,
  119, 220,
  119, 222,
  119, 225,
  119, 227,
  119, 229,
  119, 230,
  119, 231,
  119, 232,
  119, 234,
  119, 236,
  119, 237,
  119, 239,
  119, 242,
  119, 243,
  119, 246,
  119, 247,
  119, 248,
  119, 251,
  119, 252,
  119, 253,
  119, 257,
  119, 258,
  119, 261,
  119, 262,
  119, 263,
  119, 265,
  119, 267,
  119, 268,
  119, 269,
  119, 270,
  119, 271,
  119, 273,
  119, 274,
  119, 276,
  119, 277,
  119, 278,
  119, 281,
  119, 282,
  119, 284,
  119, 285,
  119, 286,
  119, 287,
  119, 290,
  119, 292,
  119, 293,
  119, 294,
  119, 296,
  119, 297,
  119, 298,
  119, 299,
  119, 300,
  119, 301,
  119, 305,
  119, 306,
  119, 307,
  119, 308,
  119, 311,
  119, 314,
  119, 315,
  119, 317,
  119, 318,
  119, 320,
  119, 321,
  119, 324,
  119, 325,
  119, 330,
  119, 332,
  119, 333,
  119, 334,
  119, 335,
  119, 338,
  119, 343,
  119, 345,
  119, 346,
  119, 347,
  119, 351,
  119, 354,
  119, 361,
  119, 362,
  119, 363,
  119, 364,
  119, 366,
  119, 367,
  119, 369,
  119, 372,
  119, 374,
  119, 379,
  119, 383,
  119, 385,
  119, 386,
  119, 387,
  119, 388,
  119, 389,
  119, 390,
  119, 395,
  119, 399,
  119, 400,
  120, 123,
  120, 124,
  120, 125,
  120, 127,
  120, 128,
  120, 129,
  120, 131,
  120, 132,
  120, 139,
  120, 146,
  120, 147,
  120, 148,
  120, 149,
  120, 151,
  120, 155,
  120, 159,
  120, 161,
  120, 162,
  120, 165,
  120, 168,
  120, 169,
  120, 171,
  120, 172,
  120, 174,
  120, 176,
  120, 177,
  120, 179,
  120, 180,
  120, 181,
  120, 182,
  120, 183,
  120, 184,
  120, 186,
  120, 193,
  120, 196,
  120, 197,
  120, 199,
  120, 200,
  120, 204,
  120, 213,
  120, 214,
  120, 215,
  120, 220,
  120, 223,
  120, 224,
  120, 225,
  120, 229,
  120, 230,
  120, 232,
  120, 234,
  120, 236,
  120, 237,
  120, 238,
  120, 239,
  120, 242,
  120, 244,
  120, 245,
  120, 246,
  120, 248,
  120, 251,
  120, 252,
  120, 257,
  120, 258,
  120, 259,
  120, 264,
  120, 267,
  120, 268,
  120, 269,
  120, 272,
  120, 277,
  120, 278,
  120, 279,
  120, 280,
  120, 283,
  120, 285,
  120, 287,
  120, 288,
  120, 289,
  120, 290,
  120, 292,
  120, 303,
  120, 304,
  120, 305,
  120, 306,
  120, 307,
  120, 309,
  120, 311,
  120, 312,
  120, 314,
  120, 315,
  120, 319,
  120, 320,
  120, 321,
  120, 322,
  120, 324,
  120, 330,
  120, 331,
  120, 333,
  120, 335,
  120, 338,
  120, 343,
  120, 346,
  120, 348,
  120, 349,
  120, 350,
  120, 351,
  120, 352,
  120, 354,
  120, 355,
  120, 358,
  120, 359,
  120, 360,
  120, 363,
  120, 366,
  120, 369,
  120, 372,
  120, 373,
  120, 374,
  120, 376,
  120, 378,
  120, 379,
  120, 381,
  120, 383,
  120, 384,
  120, 385,
  120, 387,
  120, 389,
  120, 390,
  120, 391,
  120, 393,
  120, 395,
  120, 400,
  121, 122,
  121, 125,
  121, 126,
  121, 127,
  121, 128,
  121, 129,
  121, 131,
  121, 134,
  121, 138,
  121, 139,
  121, 140,
  121, 142,
  121, 143,
  121, 144,
  121, 146,
  121, 147,
  121, 148,
  121, 150,
  121, 151,
  121, 153,
  121, 154,
  121, 159,
  121, 161,
  121, 162,
  121, 164,
  121, 165,
  121, 166,
  121, 168,
  121, 173,
  121, 177,
  121, 178,
  121, 181,
  121, 182,
  121, 183,
  121, 184,
  121, 185,
  121, 186,
  121, 187,
  121, 189,
  121, 190,
  121, 191,
  121, 198,
  121, 200,
  121, 201,
  121, 203,
  121, 204,
  121, 208,
  121, 209,
  121, 210,
  121, 211,
  121, 212,
  121, 213,
  121, 214,
  121, 215,
  121, 216,
  121, 217,
  121, 219,
  121, 221,
  121, 223,
  121, 224,
  121, 231,
  121, 233,
  121, 234,
  121, 235,
  121, 236,
  121, 237,
  121, 240,
  121, 243,
  121, 244,
  121, 246,
  121, 247,
  121, 252,
  121, 253,
  121, 254,
  121, 256,
  121, 257,
  121, 259,
  121, 262,
  121, 264,
  121, 265,
  121, 271,
  121, 279,
  121, 282,
  121, 283,
  121, 284,
  121, 287,
  121, 288,
  121, 292,
  121, 298,
  121, 299,
  121, 300,
  121, 301,
  121, 303,
  121, 304,
  121, 306,
  121, 307,
  121, 308,
  121, 315,
  121, 316,
  121, 317,
  121, 320,
  121, 325,
  121, 328,
  121, 331,
  121, 332,
  121, 333,
  121, 334,
  121, 335,
  121, 336,
  121, 337,
  121, 338,
  121, 340,
  121, 343,
  121, 345,
  121, 347,
  121, 350,
  121, 352,
  121, 354,
  121, 355,
  121, 356,
  121, 359,
  121, 360,
  121, 366,
  121, 367,
  121, 368,
  121, 370,
  121, 371,
  121, 374,
  121, 380,
  121, 384,
  121, 385,
  121, 387,
  121, 391,
  121, 395,
  121, 396,
  121, 400,
  122, 123,
  122, 124,
  122, 126,
  122, 128,
  122, 130,
  122, 131,
  122, 133,
  122, 139,
  122, 144,
  122, 147,
  122, 149,
  122, 151,
  122, 152,
  122, 153,
  122, 155,
  122, 156,
  122, 162,
  122, 164,
  122, 165,
  122, 170,
  122, 171,
  122, 175,
  122, 177,
  122, 178,
  122, 179,
  122, 180,
  122, 182,
  122, 185,
  122, 186,
  122, 189,
  122, 190,
  122, 191,
  122, 192,
  122, 193,
  122, 195,
  122, 197,
  122, 198,
  122, 199,
  122, 200,
  122, 203,
  122, 206,
  122, 208,
  122, 210,
  122, 213,
  122, 214,
  122, 215,
  122, 218,
  122, 219,
  122, 220,
  122, 224,
  122, 227,
  122, 228,
  122, 235,
  122, 236,
  122, 237,
  122, 238,
  122, 239,
  122, 241,
  122, 244,
  122, 245,
  122, 247,
  122, 250,
  122, 252,
  122, 254,
  122, 255,
  122, 256,
  122, 258,
  122, 259,
  122, 260,
  122, 263,
  122, 264,
  122, 273,
  122, 274,
  122, 275,
  122, 276,
  122, 277,
  122, 278,
  122, 281,
  122, 286,
  122, 288,
  122, 293,
  122, 294,
  122, 297,
  122, 300,
  122, 301,
  122, 307,
  122, 308,
  122, 309,
  122, 311,
  122, 312,
  122, 314,
  122, 315,
  122, 316,
  122, 317,
  122, 319,
  122, 321,
  122, 323,
  122, 324,
  122, 327,
  122, 330,
  122, 331,
  122, 337,
  122, 339,
  122, 340,
  122, 341,
  122, 342,
  122, 344,
  122, 346,
  122, 351,
  122, 352,
  122, 354,
  122, 355,
  122, 358,
  122, 359,
  122, 360,
  122, 361,
  122, 364,
  122, 367,
  122, 369,
  122, 372,
  122, 375,
  122, 376,
  122, 378,
  122, 379,
  122, 381,
  122, 382,
  122, 383,
  122, 384,
  122, 385,
  122, 386,
  122, 387,
  122, 388,
  122, 389,
  122, 394,
  122, 398,
  122, 399,
  122, 400,
  123, 124,
  123, 125,
  123, 126,
  123, 128,
  123, 134,
  123, 137,
  123, 140,
  123, 143,
  123, 145,
  123, 149,
  123, 153,
  123, 157,
  123, 159,
  123, 161,
  123, 163,
  123, 164,
  123, 166,
  123, 168,
  123, 170,
  123, 171,
  123, 172,
  123, 175,
  123, 177,
  123, 180,
  123, 181,
  123, 182,
  123, 183,
  123, 185,
  123, 188,
  123, 189,
  123, 191,
  123, 192,
  123, 194,
  123, 195,
  123, 198,
  123, 199,
  123, 200,
  123, 201,
  123, 203,
  123, 205,
  123, 206,
  123, 207,
  123, 208,
  123, 209,
  123, 210,
  123, 211,
  123, 212,
  123, 213,
  123, 218,
  123, 221,
  123, 222,
  123, 223,
  123, 224,
  123, 225,
  123, 229,
  123, 235,
  123, 236,
  123, 239,
  123, 240,
  123, 241,
  123, 243,
  123, 245,
  123, 247,
  123, 250,
  123, 251,
  123, 253,
  123, 254,
  123, 255,
  123, 258,
  123, 261,
  123, 263,
  123, 264,
  123, 266,
  123, 270,
  123, 271,
  123, 273,
  123, 274,
  123, 276,
  123, 281,
  123, 283,
  123, 288,
  123, 290,
  123, 291,
  123, 293,
  123, 297,
  123, 299,
  123, 300,
  123, 305,
  123, 310,
  123, 311,
  123, 315,
  123, 316,
  123, 318,
  123, 322,
  123, 323,
  123, 325,
  123, 326,
  123, 329,
  123, 332,
  123, 335,
  123, 336,
  123, 338,
  123, 341,
  123, 343,
  123, 344,
  123, 349,
  123, 353,
  123, 357,
  123, 359,
  123, 361,
  123, 363,
  123, 365,
  123, 366,
  123, 367,
  123, 369,
  123, 370,
  123, 371,
  123, 374,
  123, 378,
  123, 383,
  123, 389,
  123, 390,
  123, 391,
  123, 393,
  123, 394,
  123, 396,
  123, 399,
  123, 400,
  124, 126,
  124, 127,
  124, 129,
  124, 131,
  124, 132,
  124, 133,
  124, 136,
  124, 138,
  124, 141,
  124, 142,
  124, 143,
  124, 144,
  124, 145,
  124, 146,
  124, 148,
  124, 149,
  124, 150,
  124, 153,
  124, 159,
  124, 160,
  124, 162,
  124, 164,
  124, 167,
  124, 168,
  124, 169,
  124, 171,
  124, 174,
  124, 175,
  124, 178,
  124, 180,
  124, 183,
  124, 187,
  124, 191,
  124, 192,
  124, 193,
  124, 196,
  124, 198,
  124, 206,
  124, 208,
  124, 211,
  124, 213,
  124, 217,
  124, 218,
  124, 219,
  124, 221,
  124, 222,
  124, 224,
  124, 228,
  124, 229,
  124, 233,
  124, 238,
  124, 246,
  124, 248,
  124, 250,
  124, 251,
  124, 253,
  124, 254,
  124, 256,
  124, 257,
  124, 259,
  124, 260,
  124, 261,
  124, 263,
  124, 266,
  124, 267,
  124, 269,
  124, 274,
  124, 275,
  124, 276,
  124, 280,
  124, 281,
  124, 282,
  124, 284,
  124, 285,
  124, 287,
  124, 288,
  124, 291,
  124, 292,
  124, 296,
  124, 297,
  124, 299,
  124, 304,
  124, 306,
  124, 307,
  124, 310,
  124, 312,
  124, 314,
  124, 316,
  124, 321,
  124, 322,
  124, 324,
  124, 325,
  124, 331,
  124, 333,
  124, 337,
  124, 339,
  124, 342,
  124, 344,
  124, 345,
  124, 346,
  124, 350,
  124, 353,
  124, 354,
  124, 356,
  124, 359,
  124, 363,
  124, 364,
  124, 366,
  124, 367,
  124, 368,
  124, 369,
  124, 370,
  124, 373,
  124, 376,
  124, 377,
  124, 379,
  124, 383,
  124, 384,
  124, 386,
  124, 388,
  124, 390,
  124, 394,
  124, 396,
  124, 397,
  124, 398,
  124, 400,
  125, 127,
  125, 129,
  125, 130,
  125, 131,
  125, 132,
  125, 133,
  125, 134,
  125, 135,
  125, 136,
  125, 138,
  125, 142,
  125, 145,
  125, 148,
  125, 151,
  125, 153,
  125, 156,
  125, 158,
  125, 161,
  125, 162,
  125, 167,
  125, 172,
  125, 175,
  125, 176,
  125, 178,
  125, 179,
  125, 183,
  125, 187,
  125, 189,
  125, 196,
  125, 201,
  125, 202,
  125, 204,
  125, 205,
  125, 206,
  125, 207,
  125, 210,
  125, 213,
  125, 214,
  125, 215,
  125, 216,
  125, 218,
  125, 220,
  125, 221,
  125, 222,
  125, 225,
  125, 229,
  125, 230,
  125, 231,
  125, 233,
  125, 234,
  125, 235,
  125, 237,
  125, 238,
  125, 239,
  125, 241,
  125, 242,
  125, 244,
  125, 248,
  125, 252,
  125, 253,
  125, 256,
  125, 258,
  125, 260,
  125, 264,
  125, 265,
  125, 266,
  125, 267,
  125, 269,
  125, 270,
  125, 273,
  125, 277,
  125, 278,
  125, 284,
  125, 288,
  125, 290,
  125, 292,
  125, 293,
  125, 294,
  125, 296,
  125, 298,
  125, 299,
  125, 304,
  125, 305,
  125, 308,
  125, 311,
  125, 313,
  125, 315,
  125, 319,
  125, 321,
  125, 323,
  125, 324,
  125, 328,
  125, 329,
  125, 331,
  125, 333,
  125, 335,
  125, 336,
  125, 338,
  125, 339,
  125, 346,
  125, 347,
  125, 349,
  125, 350,
  125, 353,
  125, 354,
  125, 357,
  125, 359,
  125, 360,
  125, 367,
  125, 368,
  125, 369,
  125, 370,
  125, 373,
  125, 378,
  125, 379,
  125, 380,
  125, 382,
  125, 383,
  125, 384,
  125, 394,
  125, 396,
  125, 397,
  125, 399,
  126, 127,
  126, 131,
  126, 133,
  126, 134,
  126, 139,
  126, 141,
  126, 142,
  126, 145,
  126, 147,
  126, 149,
  126, 151,
  126, 152,
  126, 153,
  126, 154,
  126, 156,
  126, 160,
  126, 161,
  126, 162,
  126, 165,
  126, 166,
  126, 167,
  126, 168,
  126, 169,
  126, 170,
  126, 171,
  126, 173,
  126, 174,
  126, 175,
  126, 177,
  126, 179,
  126, 180,
  126, 181,
  126, 183,
  126, 184,
  126, 185,
  126, 187,
  126, 188,
  126, 189,
  126, 192,
  126, 193,
  126, 195,
  126, 197,
  126, 199,
  126, 200,
  126, 202,
  126, 206,
  126, 208,
  126, 209,
  126, 211,
  126, 212,
  126, 216,
  126, 221,
  126, 222,
  126, 224,
  126, 225,
  126, 226,
  126, 228,
  126, 229,
  126, 231,
  126, 235,
  126, 237,
  126, 238,
  126, 240,
  126, 244,
  126, 248,
  126, 249,
  126, 250,
  126, 251,
  126, 252,
  126, 254,
  126, 256,
  126, 258,
  126, 261,
  126, 262,
  126, 263,
  126, 265,
  126, 266,
  126, 267,
  126, 270,
  126, 272,
  126, 273,
  126, 274,
  126, 275,
  126, 276,
  126, 278,
  126, 279,
  126, 280,
  126, 282,
  126, 294,
  126, 296,
  126, 298,
  126, 304,
  126, 306,
  126, 309,
  126, 313,
  126, 314,
  126, 316,
  126, 320,
  126, 322,
  126, 324,
  126, 327,
  126, 332,
  126, 334,
  126, 335,
  126, 341,
  126, 342,
  126, 346,
  126, 347,
  126, 349,
  126, 351,
  126, 354,
  126, 355,
  126, 358,
  126, 359,
  126, 362,
  126, 363,
  126, 364,
  126, 367,
  126, 368,
  126, 370,
  126, 371,
  126, 372,
  126, 373,
  126, 375,
  126, 376,
  126, 377,
  126, 382,
  126, 383,
  126, 384,
  126, 386,
  126, 388,
  126, 392,
  126, 394,
  126, 396,
  126, 397,
  127, 130,
  127, 131,
  127, 132,
  127, 133,
  127, 134,
  127, 136,
  127, 140,
  127, 141,
  127, 143,
  127, 145,
  127, 148,
  127, 151,
  127, 153,
  127, 154,
  127, 155,
  127, 156,
  127, 158,
  127, 163,
  127, 164,
  127, 165,
  127, 167,
  127, 171,
  127, 172,
  127, 173,
  127, 174,
  127, 175,
  127, 178,
  127, 182,
  127, 184,
  127, 188,
  127, 189,
  127, 192,
  127, 195,
  127, 198,
  127, 199,
  127, 200,
  127, 203,
  127, 204,
  127, 207,
  127, 209,
  127, 212,
  127, 214,
  127, 215,
  127, 216,
  127, 217,
  127, 218,
  127, 221,
  127, 222,
  127, 224,
  127, 225,
  127, 228,
  127, 229,
  127, 230,
  127, 232,
  127, 233,
  127, 235,
  127, 241,
  127, 242,
  127, 244,
  127, 245,
  127, 247,
  127, 250,
  127, 251,
  127, 252,
  127, 256,
  127, 261,
  127, 263,
  127, 264,
  127, 265,
  127, 266,
  127, 269,
  127, 270,
  127, 272,
  127, 273,
  127, 276,
  127, 278,
  127, 280,
  127, 282,
  127, 287,
  127, 290,
  127, 292,
  127, 296,
  127, 297,
  127, 305,
  127, 309,
  127, 310,
  127, 312,
  127, 314,
  127, 318,
  127, 319,
  127, 320,
  127, 321,
  127, 324,
  127, 330,
  127, 332,
  127, 333,
  127, 334,
  127, 335,
  127, 338,
  127, 341,
  127, 342,
  127, 343,
  127, 346,
  127, 348,
  127, 349,
  127, 350,
  127, 352,
  127, 353,
  127, 354,
  127, 358,
  127, 360,
  127, 362,
  127, 363,
  127, 364,
  127, 365,
  127, 366,
  127, 369,
  127, 371,
  127, 374,
  127, 375,
  127, 376,
  127, 377,
  127, 379,
  127, 380,
  127, 382,
  127, 384,
  127, 386,
  127, 387,
  127, 389,
  127, 390,
  127, 392,
  127, 393,
  127, 398,
  127, 399,
  127, 400,
  128, 130,
  128, 131,
  128, 133,
  128, 139,
  128, 141,
  128, 153,
  128, 162,
  128, 165,
  128, 168,
  128, 169,
  128, 173,
  128, 174,
  128, 176,
  128, 178,
  128, 179,
  128, 184,
  128, 186,
  128, 187,
  128, 189,
  128, 190,
  128, 192,
  128, 193,
  128, 194,
  128, 195,
  128, 197,
  128, 198,
  128, 199,
  128, 202,
  128, 205,
  128, 208,
  128, 209,
  128, 210,
  128, 211,
  128, 213,
  128, 214,
  128, 216,
  128, 219,
  128, 220,
  128, 221,
  128, 222,
  128, 223,
  128, 224,
  128, 226,
  128, 231,
  128, 232,
  128, 233,
  128, 237,
  128, 238,
  128, 240,
  128, 241,
  128, 243,
  128, 244,
  128, 246,
  128, 248,
  128, 249,
  128, 250,
  128, 252,
  128, 255,
  128, 257,
  128, 259,
  128, 263,
  128, 264,
  128, 265,
  128, 267,
  128, 268,
  128, 270,
  128, 272,
  128, 274,
  128, 275,
  128, 276,
  128, 277,
  128, 278,
  128, 281,
  128, 282,
  128, 284,
  128, 288,
  128, 289,
  128, 292,
  128, 294,
  128, 295,
  128, 298,
  128, 300,
  128, 304,
  128, 305,
  128, 306,
  128, 309,
  128, 315,
  128, 319,
  128, 320,
  128, 321,
  128, 322,
  128, 328,
  128, 329,
  128, 330,
  128, 331,
  128, 333,
  128, 335,
  128, 340,
  128, 344,
  128, 345,
  128, 347,
  128, 348,
  128, 349,
  128, 350,
  128, 355,
  128, 356,
  128, 358,
  128, 362,
  128, 363,
  128, 368,
  128, 373,
  128, 375,
  128, 376,
  128, 377,
  128, 379,
  128, 381,
  128, 383,
  128, 385,
  128, 386,
  128, 388,
  128, 389,
  128, 391,
  128, 393,
  128, 394,
  128, 399,
  129, 130,
  129, 138,
  129, 141,
  129, 149,
  129, 153,
  129, 154,
  129, 157,
  129, 158,
  129, 163,
  129, 164,
  129, 165,
  129, 169,
  129, 176,
  129, 178,
  129, 181,
  129, 182,
  129, 183,
  129, 184,
  129, 185,
  129, 187,
  129, 194,
  129, 196,
  129, 199,
  129, 202,
  129, 203,
  129, 204,
  129, 205,
  129, 211,
  129, 215,
  129, 216,
  129, 217,
  129, 220,
  129, 221,
  129, 222,
  129, 224,
  129, 225,
  129, 226,
  129, 227,
  129, 228,
  129, 229,
  129, 230,
  129, 231,
  129, 232,
  129, 237,
  129, 242,
  129, 244,
  129, 245,
  129, 246,
  129, 249,
  129, 252,
  129, 253,
  129, 255,
  129, 256,
  129, 259,
  129, 260,
  129, 261,
  129, 263,
  129, 266,
  129, 268,
  129, 269,
  129, 270,
  129, 272,
  129, 274,
  129, 275,
  129, 276,
  129, 277,
  129, 278,
  129, 281,
  129, 282,
  129, 283,
  129, 284,
  129, 285,
  129, 288,
  129, 289,
  129, 290,
  129, 294,
  129, 295,
  129, 296,
  129, 297,
  129, 299,
  129, 302,
  129, 305,
  129, 306,
  129, 309,
  129, 310,
  129, 311,
  129, 312,
  129, 314,
  129, 316,
  129, 318,
  129, 319,
  129, 320,
  129, 325,
  129, 327,
  129, 331,
  129, 333,
  129, 334,
  129, 335,
  129, 336,
  129, 338,
  129, 340,
  129, 342,
  129, 345,
  129, 346,
  129, 348,
  129, 350,
  129, 351,
  129, 354,
  129, 355,
  129, 357,
  129, 359,
  129, 364,
  129, 365,
  129, 368,
  129, 372,
  129, 375,
  129, 376,
  129, 380,
  129, 382,
  129, 384,
  129, 386,
  129, 387,
  129, 389,
  129, 390,
  129, 392,
  129, 393,
  129, 396,
  129, 397,
  129, 398,
  129, 399,
  130, 132,
  130, 136,
  130, 137,
  130, 138,
  130, 140,
  130, 141,
  130, 144,
  130, 145,
  130, 146,
  130, 147,
  130, 148,
  130, 149,
  130, 151,
  130, 152,
  130, 153,
  130, 155,
  130, 159,
  130, 161,
  130, 163,
  130, 164,
  130, 170,
  130, 172,
  130, 173,
  130, 179,
  130, 180,
  130, 181,
  130, 182,
  130, 183,
  130, 184,
  130, 185,
  130, 186,
  130, 187,
  130, 188,
  130, 190,
  130, 191,
  130, 192,
  130, 194,
  130, 195,
  130, 197,
  130, 199,
  130, 200,
  130, 201,
  130, 205,
  130, 206,
  130, 213,
  130, 214,
  130, 217,
  130, 218,
  130, 219,
  130, 224,
  130, 226,
  130, 227,
  130, 228,
  130, 229,
  130, 230,
  130, 231,
  130, 233,
  130, 237,
  130, 239,
  130, 241,
  130, 244,
  130, 245,
  130, 247,
  130, 249,
  130, 251,
  130, 252,
  130, 256,
  130, 257,
  130, 258,
  130, 260,
  130, 266,
  130, 268,
  130, 269,
  130, 270,
  130, 271,
  130, 272,
  130, 273,
  130, 274,
  130, 275,
  130, 276,
  130, 277,
  130, 278,
  130, 283,
  130, 284,
  130, 285,
  130, 286,
  130, 287,
  130, 288,
  130, 289,
  130, 290,
  130, 291,
  130, 292,
  130, 296,
  130, 297,
  130, 298,
  130, 300,
  130, 302,
  130, 303,
  130, 305,
  130, 309,
  130, 310,
  130, 311,
  130, 313,
  130, 315,
  130, 317,
  130, 319,
  130, 320,
  130, 323,
  130, 324,
  130, 328,
  130, 329,
  130, 333,
  130, 338,
  130, 340,
  130, 343,
  130, 344,
  130, 345,
  130, 347,
  130, 349,
  130, 352,
  130, 354,
  130, 361,
  130, 367,
  130, 372,
  130, 373,
  130, 377,
  130, 378,
  130, 380,
  130, 381,
  130, 384,
  130, 385,
  130, 392,
  130, 394,
  130, 395,
  130, 397,
  130, 400,
  131, 133,
  131, 135,
  131, 136,
  131, 139,
  131, 141,
  131, 143,
  131, 144,
  131, 147,
  131, 151,
  131, 152,
  131, 153,
  131, 154,
  131, 156,
  131, 157,
  131, 162,
  131, 164,
  131, 166,
  131, 167,
  131, 168,
  131, 169,
  131, 171,
  131, 172,
  131, 173,
  131, 174,
  131, 175,
  131, 176,
  131, 178,
  131, 179,
  131, 180,
  131, 182,
  131, 187,
  131, 188,
  131, 189,
  131, 190,
  131, 192,
  131, 195,
  131, 196,
  131, 197,
  131, 202,
  131, 203,
  131, 204,
  131, 207,
  131, 209,
  131, 210,
  131, 211,
  131, 213,
  131, 214,
  131, 215,
  131, 218,
  131, 219,
  131, 221,
  131, 222,
  131, 223,
  131, 228,
  131, 229,
  131, 230,
  131, 232,
  131, 233,
  131, 234,
  131, 236,
  131, 237,
  131, 238,
  131, 239,
  131, 240,
  131, 246,
  131, 250,
  131, 251,
  131, 252,
  131, 256,
  131, 258,
  131, 259,
  131, 260,
  131, 261,
  131, 263,
  131, 264,
  131, 265,
  131, 267,
  131, 269,
  131, 272,
  131, 273,
  131, 276,
  131, 278,
  131, 279,
  131, 280,
  131, 281,
  131, 283,
  131, 284,
  131, 285,
  131, 286,
  131, 287,
  131, 289,
  131, 290,
  131, 291,
  131, 292,
  131, 295,
  131, 296,
  131, 297,
  131, 299,
  131, 300,
  131, 301,
  131, 302,
  131, 304,
  131, 305,
  131, 306,
  131, 309,
  131, 310,
  131, 311,
  131, 313,
  131, 314,
  131, 315,
  131, 318,
  131, 319,
  131, 323,
  131, 324,
  131, 325,
  131, 327,
  131, 329,
  131, 330,
  131, 334,
  131, 335,
  131, 336,
  131, 339,
  131, 340,
  131, 342,
  131, 345,
  131, 346,
  131, 347,
  131, 348,
  131, 354,
  131, 355,
  131, 356,
  131, 358,
  131, 359,
  131, 360,
  131, 361,
  131, 363,
  131, 364,
  131, 365,
  131, 369,
  131, 372,
  131, 374,
  131, 376,
  131, 377,
  131, 378,
  131, 379,
  131, 380,
  131, 382,
  131, 383,
  131, 384,
  131, 385,
  131, 387,
  131, 392,
  131, 393,
  131, 394,
  131, 395,
  131, 396,
  131, 397,
  131, 400,
  132, 134,
  132, 135,
  132, 137,
  132, 142,
  132, 145,
  132, 147,
  132, 151,
  132, 152,
  132, 153,
  132, 156,
  132, 157,
  132, 159,
  132, 160,
  132, 161,
  132, 163,
  132, 167,
  132, 170,
  132, 173,
  132, 176,
  132, 177,
  132, 178,
  132, 180,
  132, 182,
  132, 184,
  132, 185,
  132, 186,
  132, 187,
  132, 188,
  132, 190,
  132, 191,
  132, 192,
  132, 193,
  132, 194,
  132, 196,
  132, 199,
  132, 201,
  132, 206,
  132, 210,
  132, 211,
  132, 212,
  132, 215,
  132, 216,
  132, 217,
  132, 220,
  132, 222,
  132, 224,
  132, 225,
  132, 226,
  132, 230,
  132, 231,
  132, 233,
  132, 234,
  132, 239,
  132, 241,
  132, 242,
  132, 243,
  132, 244,
  132, 248,
  132, 250,
  132, 252,
  132, 255,
  132, 257,
  132, 258,
  132, 260,
  132, 263,
  132, 267,
  132, 270,
  132, 272,
  132, 273,
  132, 274,
  132, 278,
  132, 280,
  132, 282,
  132, 284,
  132, 285,
  132, 287,
  132, 289,
  132, 292,
  132, 297,
  132, 299,
  132, 300,
  132, 302,
  132, 303,
  132, 306,
  132, 307,
  132, 308,
  132, 310,
  132, 312,
  132, 313,
  132, 315,
  132, 317,
  132, 318,
  132, 321,
  132, 323,
  132, 329,
  132, 331,
  132, 332,
  132, 334,
  132, 336,
  132, 337,
  132, 340,
  132, 342,
  132, 349,
  132, 350,
  132, 352,
  132, 353,
  132, 356,
  132, 359,
  132, 360,
  132, 361,
  132, 363,
  132, 364,
  132, 370,
  132, 371,
  132, 372,
  132, 374,
  132, 376,
  132, 379,
  132, 381,
  132, 383,
  132, 387,
  132, 388,
  132, 389,
  132, 392,
  132, 394,
  132, 395,
  132, 397,
  132, 399,
  132, 400,
  133, 134,
  133, 135,
  133, 138,
  133, 140,
  133, 141,
  133, 144,
  133, 145,
  133, 147,
  133, 148,
  133, 149,
  133, 152,
  133, 153,
  133, 159,
  133, 161,
  133, 162,
  133, 163,
  133, 164,
  133, 166,
  133, 167,
  133, 168,
  133, 175,
  133, 176,
  133, 179,
  133, 180,
  133, 181,
  133, 182,
  133, 184,
  133, 186,
  133, 188,
  133, 189,
  133, 191,
  133, 193,
  133, 195,
  133, 197,
  133, 201,
  133, 203,
  133, 204,
  133, 208,
  133, 209,
  133, 213,
  133, 217,
  133, 218,
  133, 219,
  133, 222,
  133, 223,
  133, 226,
  133, 229,
  133, 230,
  133, 234,
  133, 236,
  133, 240,
  133, 243,
  133, 244,
  133, 245,
  133, 246,
  133, 252,
  133, 254,
  133, 255,
  133, 256,
  133, 257,
  133, 258,
  133, 260,
  133, 261,
  133, 262,
  133, 265,
  133, 266,
  133, 274,
  133, 276,
  133, 278,
  133, 283,
  133, 285,
  133, 286,
  133, 287,
  133, 292,
  133, 294,
  133, 296,
  133, 297,
  133, 301,
  133, 302,
  133, 303,
  133, 306,
  133, 308,
  133, 311,
  133, 312,
  133, 313,
  133, 314,
  133, 315,
  133, 318,
  133, 320,
  133, 321,
  133, 323,
  133, 325,
  133, 326,
  133, 329,
  133, 331,
  133, 333,
  133, 334,
  133, 338,
  133, 340,
  133, 341,
  133, 344,
  133, 346,
  133, 349,
  133, 350,
  133, 351,
  133, 353,
  133, 354,
  133, 355,
  133, 357,
  133, 359,
  133, 361,
  133, 362,
  133, 363,
  133, 364,
  133, 365,
  133, 367,
  133, 372,
  133, 374,
  133, 375,
  133, 380,
  133, 383,
  133, 384,
  133, 388,
  133, 389,
  133, 391,
  133, 395,
  133, 396,
  133, 399,
  133, 400,
  134, 135,
  134, 136,
  134, 139,
  134, 140,
  134, 142,
  134, 144,
  134, 148,
  134, 154,
  134, 155,
  134, 158,
  134, 159,
  134, 163,
  134, 165,
  134, 169,
  134, 171,
  134, 172,
  134, 173,
  134, 175,
  134, 177,
  134, 178,
  134, 179,
  134, 180,
  134, 182,
  134, 183,
  134, 185,
  134, 187,
  134, 188,
  134, 190,
  134, 194,
  134, 195,
  134, 196,
  134, 200,
  134, 201,
  134, 202,
  134, 203,
  134, 204,
  134, 205,
  134, 206,
  134, 209,
  134, 210,
  134, 211,
  134, 214,
  134, 216,
  134, 218,
  134, 219,
  134, 221,
  134, 224,
  134, 225,
  134, 226,
  134, 227,
  134, 229,
  134, 232,
  134, 233,
  134, 234,
  134, 242,
  134, 251,
  134, 253,
  134, 257,
  134, 259,
  134, 261,
  134, 262,
  134, 266,
  134, 270,
  134, 271,
  134, 272,
  134, 274,
  134, 276,
  134, 279,
  134, 283,
  134, 284,
  134, 286,
  134, 287,
  134, 291,
  134, 295,
  134, 299,
  134, 300,
  134, 301,
  134, 303,
  134, 304,
  134, 305,
  134, 306,
  134, 307,
  134, 311,
  134, 312,
  134, 313,
  134, 314,
  134, 316,
  134, 317,
  134, 318,
  134, 319,
  134, 321,
  134, 323,
  134, 324,
  134, 328,
  134, 332,
  134, 333,
  134, 334,
  134, 338,
  134, 342,
  134, 344,
  134, 346,
  134, 347,
  134, 348,
  134, 349,
  134, 352,
  134, 358,
  134, 359,
  134, 363,
  134, 365,
  134, 367,
  134, 368,
  134, 369,
  134, 371,
  134, 372,
  134, 376,
  134, 377,
  134, 378,
  134, 381,
  134, 383,
  134, 385,
  134, 386,
  134, 387,
  134, 388,
  134, 389,
  134, 392,
  134, 393,
  134, 396,
  134, 398,
  134, 400,
  135, 136,
  135, 137,
  135, 138,
  135, 139,
  135, 140,
  135, 141,
  135, 143,
  135, 149,
  135, 150,
  135, 151,
  135, 153,
  135, 155,
  135, 158,
  135, 159,
  135, 160,
  135, 162,
  135, 163,
  135, 165,
  135, 166,
  135, 168,
  135, 169,
  135, 173,
  135, 175,
  135, 176,
  135, 180,
  135, 182,
  135, 183,
  135, 184,
  135, 186,
  135, 187,
  135, 188,
  135, 189,
  135, 190,
  135, 192,
  135, 193,
  135, 195,
  135, 197,
  135, 198,
  135, 199,
  135, 201,
  135, 203,
  135, 205,
  135, 206,
  135, 208,
  135, 210,
  135, 213,
  135, 215,
  135, 216,
  135, 217,
  135, 218,
  135, 220,
  135, 223,
  135, 224,
  135, 226,
  135, 229,
  135, 233,
  135, 235,
  135, 236,
  135, 237,
  135, 239,
  135, 241,
  135, 242,
  135, 248,
  135, 249,
  135, 251,
  135, 252,
  135, 253,
  135, 254,
  135, 255,
  135, 256,
  135, 258,
  135, 259,
  135, 260,
  135, 261,
  135, 265,
  135, 266,
  135, 267,
  135, 271,
  135, 272,
  135, 273,
  135, 278,
  135, 279,
  135, 284,
  135, 286,
  135, 288,
  135, 290,
  135, 292,
  135, 293,
  135, 294,
  135, 295,
  135, 297,
  135, 298,
  135, 299,
  135, 300,
  135, 301,
  135, 302,
  135, 305,
  135, 307,
  135, 309,
  135, 310,
  135, 311,
  135, 312,
  135, 315,
  135, 317,
  135, 325,
  135, 327,
  135, 332,
  135, 333,
  135, 334,
  135, 340,
  135, 341,
  135, 344,
  135, 346,
  135, 348,
  135, 349,
  135, 352,
  135, 355,
  135, 356,
  135, 357,
  135, 358,
  135, 361,
  135, 364,
  135, 367,
  135, 369,
  135, 371,
  135, 373,
  135, 374,
  135, 375,
  135, 377,
  135, 380,
  135, 382,
  135, 383,
  135, 384,
  135, 385,
  135, 387,
  135, 388,
  135, 390,
  135, 391,
  135, 393,
  135, 396,
  136, 137,
  136, 141,
  136, 142,
  136, 143,
  136, 145,
  136, 146,
  136, 148,
  136, 149,
  136, 152,
  136, 153,
  136, 154,
  136, 157,
  136, 158,
  136, 160,
  136, 164,
  136, 167,
  136, 168,
  136, 169,
  136, 172,
  136, 173,
  136, 174,
  136, 178,
  136, 179,
  136, 181,
  136, 182,
  136, 184,
  136, 185,
  136, 187,
  136, 191,
  136, 194,
  136, 195,
  136, 198,
  136, 203,
  136, 205,
  136, 207,
  136, 208,
  136, 209,
  136, 210,
  136, 212,
  136, 213,
  136, 215,
  136, 217,
  136, 218,
  136, 220,
  136, 221,
  136, 226,
  136, 228,
  136, 232,
  136, 233,
  136, 235,
  136, 237,
  136, 238,
  136, 239,
  136, 241,
  136, 242,
  136, 244,
  136, 248,
  136, 249,
  136, 250,
  136, 251,
  136, 253,
  136, 255,
  136, 256,
  136, 257,
  136, 259,
  136, 260,
  136, 262,
  136, 263,
  136, 264,
  136, 268,
  136, 269,
  136, 274,
  136, 276,
  136, 277,
  136, 278,
  136, 280,
  136, 283,
  136, 284,
  136, 287,
  136, 289,
  136, 292,
  136, 293,
  136, 298,
  136, 299,
  136, 301,
  136, 302,
  136, 304,
  136, 309,
  136, 311,
  136, 312,
  136, 313,
  136, 314,
  136, 315,
  136, 319,
  136, 323,
  136, 324,
  136, 325,
  136, 326,
  136, 327,
  136, 329,
  136, 330,
  136, 331,
  136, 332,
  136, 333,
  136, 334,
  136, 335,
  136, 336,
  136, 337,
  136, 339,
  136, 344,
  136, 347,
  136, 352,
  136, 353,
  136, 356,
  136, 357,
  136, 360,
  136, 361,
  136, 364,
  136, 365,
  136, 366,
  136, 374,
  136, 379,
  136, 381,
  136, 382,
  136, 383,
  136, 384,
  136, 386,
  136, 387,
  136, 388,
  136, 389,
  136, 392,
  136, 393,
  136, 394,
  136, 395,
  136, 396,
  136, 397,
  136, 398,
  136, 399,
  137, 139,
  137, 140,
  137, 147,
  137, 151,
  137, 152,
  137, 154,
  137, 160,
  137, 164,
  137, 165,
  137, 166,
  137, 167,
  137, 169,
  137, 174,
  137, 175,
  137, 177,
  137, 178,
  137, 180,
  137, 183,
  137, 188,
  137, 191,
  137, 194,
  137, 196,
  137, 197,
  137, 198,
  137, 200,
  137, 201,
  137, 202,
  137, 206,
  137, 208,
  137, 209,
  137, 210,
  137, 213,
  137, 217,
  137, 218,
  137, 222,
  137, 225,
  137, 228,
  137, 230,
  137, 232,
  137, 238,
  137, 240,
  137, 241,
  137, 242,
  137, 243,
  137, 245,
  137, 247,
  137, 248,
  137, 249,
  137, 251,
  137, 254,
  137, 255,
  137, 256,
  137, 259,
  137, 264,
  137, 266,
  137, 267,
  137, 268,
  137, 273,
  137, 274,
  137, 276,
  137, 278,
  137, 279,
  137, 284,
  137, 285,
  137, 286,
  137, 287,
  137, 289,
  137, 290,
  137, 294,
  137, 295,
  137, 298,
  137, 299,
  137, 301,
  137, 304,
  137, 307,
  137, 310,
  137, 314,
  137, 315,
  137, 319,
  137, 322,
  137, 327,
  137, 329,
  137, 330,
  137, 333,
  137, 334,
  137, 335,
  137, 336,
  137, 337,
  137, 338,
  137, 339,
  137, 341,
  137, 343,
  137, 346,
  137, 347,
  137, 349,
  137, 352,
  137, 353,
  137, 356,
  137, 357,
  137, 359,
  137, 360,
  137, 361,
  137, 368,
  137, 369,
  137, 371,
  137, 374,
  137, 376,
  137, 381,
  137, 383,
  137, 385,
  137, 390,
  137, 391,
  137, 392,
  137, 393,
  137, 395,
  137, 396,
  137, 398,
  137, 399,
  138, 140,
  138, 142,
  138, 143,
  138, 146,
  138, 147,
  138, 150,
  138, 152,
  138, 153,
  138, 154,
  138, 155,
  138, 156,
  138, 157,
  138, 158,
  138, 161,
  138, 162,
  138, 165,
  138, 166,
  138, 168,
  138, 169,
  138, 171,
  138, 173,
  138, 174,
  138, 176,
  138, 179,
  138, 181,
  138, 182,
  138, 185,
  138, 187,
  138, 188,
  138, 190,
  138, 191,
  138, 196,
  138, 197,
  138, 198,
  138, 200,
  138, 201,
  138, 202,
  138, 206,
  138, 208,
  138, 210,
  138, 211,
  138, 212,
  138, 214,
  138, 215,
  138, 216,
  138, 217,
  138, 218,
  138, 219,
  138, 220,
  138, 223,
  138, 224,
  138, 225,
  138, 226,
  138, 228,
  138, 235,
  138, 236,
  138, 238,
  138, 242,
  138, 244,
  138, 245,
  138, 246,
  138, 247,
  138, 250,
  138, 251,
  138, 252,
  138, 253,
  138, 254,
  138, 257,
  138, 258,
  138, 263,
  138, 265,
  138, 268,
  138, 269,
  138, 271,
  138, 272,
  138, 275,
  138, 276,
  138, 280,
  138, 281,
  138, 282,
  138, 283,
  138, 286,
  138, 288,
  138, 289,
  138, 290,
  138, 291,
  138, 295,
  138, 296,
  138, 297,
  138, 298,
  138, 299,
  138, 301,
  138, 304,
  138, 305,
  138, 307,
  138, 309,
  138, 310,
  138, 313,
  138, 314,
  138, 316,
  138, 317,
  138, 319,
  138, 321,
  138, 323,
  138, 325,
  138, 326,
  138, 327,
  138, 328,
  138, 329,
  138, 330,
  138, 331,
  138, 333,
  138, 334,
  138, 336,
  138, 343,
  138, 347,
  138, 350,
  138, 351,
  138, 352,
  138, 353,
  138, 355,
  138, 358,
  138, 359,
  138, 360,
  138, 363,
  138, 365,
  138, 366,
  138, 367,
  138, 369,
  138, 371,
  138, 372,
  138, 373,
  138, 374,
  138, 375,
  138, 377,
  138, 378,
  138, 379,
  138, 381,
  138, 383,
  138, 384,
  138, 385,
  138, 386,
  138, 390,
  138, 391,
  138, 393,
  138, 397,
  138, 398,
  138, 399,
  139, 142,
  139, 144,
  139, 145,
  139, 147,
  139, 150,
  139, 152,
  139, 153,
  139, 154,
  139, 156,
  139, 158,
  139, 160,
  139, 162,
  139, 163,
  139, 165,
  139, 166,
  139, 167,
  139, 169,
  139, 171,
  139, 173,
  139, 175,
  139, 176,
  139, 179,
  139, 180,
  139, 181,
  139, 182,
  139, 185,
  139, 186,
  139, 190,
  139, 191,
  139, 192,
  139, 193,
  139, 195,
  139, 196,
  139, 200,
  139, 201,
  139, 202,
  139, 205,
  139, 206,
  139, 207,
  139, 208,
  139, 215,
  139, 216,
  139, 219,
  139, 221,
  139, 222,
  139, 224,
  139, 225,
  139, 226,
  139, 227,
  139, 228,
  139, 231,
  139, 232,
  139, 233,
  139, 235,
  139, 237,
  139, 238,
  139, 241,
  139, 242,
  139, 243,
  139, 244,
  139, 245,
  139, 248,
  139, 249,
  139, 254,
  139, 258,
  139, 262,
  139, 263,
  139, 264,
  139, 265,
  139, 266,
  139, 267,
  139, 269,
  139, 270,
  139, 273,
  139, 274,
  139, 279,
  139, 280,
  139, 282,
  139, 284,
  139, 285,
  139, 286,
  139, 288,
  139, 290,
  139, 291,
  139, 294,
  139, 296,
  139, 297,
  139, 299,
  139, 300,
  139, 303,
  139, 304,
  139, 306,
  139, 308,
  139, 310,
  139, 311,
  139, 312,
  139, 316,
  139, 322,
  139, 326,
  139, 327,
  139, 328,
  139, 329,
  139, 331,
  139, 334,
  139, 335,
  139, 338,
  139, 339,
  139, 340,
  139, 344,
  139, 345,
  139, 346,
  139, 347,
  139, 354,
  139, 355,
  139, 356,
  139, 360,
  139, 362,
  139, 363,
  139, 364,
  139, 366,
  139, 367,
  139, 369,
  139, 370,
  139, 371,
  139, 372,
  139, 374,
  139, 376,
  139, 377,
  139, 378,
  139, 380,
  139, 382,
  139, 383,
  139, 386,
  139, 387,
  139, 390,
  139, 392,
  139, 393,
  139, 394,
  139, 395,
  139, 396,
  139, 397,
  139, 399,
  139, 400,
  140, 145,
  140, 147,
  140, 149,
  140, 150,
  140, 152,
  140, 154,
  140, 155,
  140, 157,
  140, 159,
  140, 160,
  140, 163,
  140, 164,
  140, 167,
  140, 170,
  140, 171,
  140, 174,
  140, 175,
  140, 176,
  140, 180,
  140, 181,
  140, 182,
  140, 183,
  140, 187,
  140, 191,
  140, 193,
  140, 195,
  140, 196,
  140, 199,
  140, 200,
  140, 201,
  140, 203,
  140, 204,
  140, 205,
  140, 207,
  140, 208,
  140, 209,
  140, 211,
  140, 212,
  140, 213,
  140, 215,
  140, 220,
  140, 221,
  140, 223,
  140, 225,
  140, 226,
  140, 227,
  140, 231,
  140, 233,
  140, 234,
  140, 237,
  140, 238,
  140, 239,
  140, 244,
  140, 245,
  140, 246,
  140, 248,
  140, 250,
  140, 254,
  140, 255,
  140, 257,
  140, 260,
  140, 261,
  140, 262,
  140, 264,
  140, 267,
  140, 269,
  140, 272,
  140, 275,
  140, 276,
  140, 277,
  140, 282,
  140, 285,
  140, 286,
  140, 287,
  140, 290,
  140, 292,
  140, 293,
  140, 296,
  140, 298,
  140, 301,
  140, 303,
  140, 306,
  140, 308,
  140, 310,
  140, 317,
  140, 318,
  140, 319,
  140, 323,
  140, 325,
  140, 328,
  140, 331,
  140, 334,
  140, 338,
  140, 340,
  140, 341,
  140, 342,
  140, 343,
  140, 345,
  140, 346,
  140, 347,
  140, 348,
  140, 351,
  140, 353,
  140, 354,
  140, 355,
  140, 359,
  140, 363,
  140, 364,
  140, 365,
  140, 366,
  140, 368,
  140, 369,
  140, 371,
  140, 372,
  140, 375,
  140, 376,
  140, 377,
  140, 378,
  140, 380,
  140, 382,
  140, 383,
  140, 384,
  140, 385,
  140, 387,
  140, 389,
  140, 390,
  140, 391,
  140, 392,
  140, 395,
  140, 396,
  140, 398,
  141, 143,
  141, 145,
  141, 146,
  141, 147,
  141, 150,
  141, 154,
  141, 155,
  141, 158,
  141, 159,
  141, 160,
  141, 161,
  141, 163,
  141, 164,
  141, 168,
  141, 170,
  141, 171,
  141, 172,
  141, 174,
  141, 179,
  141, 182,
  141, 184,
  141, 185,
  141, 186,
  141, 187,
  141, 188,
  141, 189,
  141, 194,
  141, 195,
  141, 196,
  141, 198,
  141, 199,
  141, 200,
  141, 201,
  141, 202,
  141, 204,
  141, 206,
  141, 207,
  141, 208,
  141, 209,
  141, 212,
  141, 213,
  141, 219,
  141, 221,
  141, 222,
  141, 224,
  141, 227,
  141, 229,
  141, 230,
  141, 233,
  141, 234,
  141, 235,
  141, 236,
  141, 237,
  141, 239,
  141, 240,
  141, 242,
  141, 243,
  141, 244,
  141, 245,
  141, 246,
  141, 247,
  141, 249,
  141, 250,
  141, 254,
  141, 255,
  141, 256,
  141, 258,
  141, 259,
  141, 261,
  141, 262,
  141, 264,
  141, 266,
  141, 267,
  141, 269,
  141, 270,
  141, 273,
  141, 274,
  141, 275,
  141, 276,
  141, 279,
  141, 282,
  141, 283,
  141, 284,
  141, 288,
  141, 290,
  141, 291,
  141, 294,
  141, 295,
  141, 298,
  141, 299,
  141, 304,
  141, 305,
  141, 309,
  141, 310,
  141, 311,
  141, 312,
  141, 318,
  141, 319,
  141, 321,
  141, 322,
  141, 323,
  141, 325,
  141, 326,
  141, 329,
  141, 331,
  141, 332,
  141, 335,
  141, 338,
  141, 339,
  141, 340,
  141, 341,
  141, 343,
  141, 346,
  141, 348,
  141, 350,
  141, 352,
  141, 356,
  141, 358,
  141, 359,
  141, 360,
  141, 361,
  141, 362,
  141, 363,
  141, 364,
  141, 367,
  141, 368,
  141, 370,
  141, 372,
  141, 376,
  141, 380,
  141, 382,
  141, 384,
  141, 385,
  141, 386,
  141, 388,
  141, 389,
  141, 390,
  141, 391,
  141, 393,
  141, 394,
  141, 395,
  141, 396,
  141, 397,
  141, 399,
  141, 400,
  142, 143,
  142, 145,
  142, 146,
  142, 148,
  142, 149,
  142, 150,
  142, 152,
  142, 154,
  142, 156,
  142, 157,
  142, 161,
  142, 162,
  142, 163,
  142, 164,
  142, 167,
  142, 168,
  142, 170,
  142, 171,
  142, 172,
  142, 173,
  142, 179,
  142, 181,
  142, 183,
  142, 184,
  142, 185,
  142, 186,
  142, 188,
  142, 190,
  142, 192,
  142, 193,
  142, 197,
  142, 198,
  142, 200,
  142, 201,
  142, 206,
  142, 208,
  142, 209,
  142, 210,
  142, 215,
  142, 216,
  142, 218,
  142, 221,
  142, 226,
  142, 227,
  142, 231,
  142, 232,
  142, 233,
  142, 238,
  142, 239,
  142, 241,
  142, 246,
  142, 248,
  142, 249,
  142, 251,
  142, 253,
  142, 255,
  142, 256,
  142, 258,
  142, 261,
  142, 264,
  142, 268,
  142, 272,
  142, 274,
  142, 275,
  142, 278,
  142, 279,
  142, 280,
  142, 281,
  142, 282,
  142, 287,
  142, 289,
  142, 290,
  142, 291,
  142, 292,
  142, 293,
  142, 294,
  142, 297,
  142, 299,
  142, 303,
  142, 306,
  142, 307,
  142, 309,
  142, 310,
  142, 312,
  142, 315,
  142, 316,
  142, 317,
  142, 318,
  142, 320,
  142, 321,
  142, 322,
  142, 325,
  142, 326,
  142, 328,
  142, 331,
  142, 332,
  142, 335,
  142, 337,
  142, 338,
  142, 339,
  142, 342,
  142, 343,
  142, 344,
  142, 348,
  142, 349,
  142, 351,
  142, 352,
  142, 353,
  142, 355,
  142, 358,
  142, 359,
  142, 360,
  142, 363,
  142, 364,
  142, 365,
  142, 367,
  142, 368,
  142, 369,
  142, 370,
  142, 371,
  142, 372,
  142, 373,
  142, 374,
  142, 376,
  142, 380,
  142, 382,
  142, 383,
  142, 384,
  142, 386,
  142, 387,
  142, 388,
  142, 390,
  142, 394,
  142, 395,
  142, 396,
  142, 398,
  142, 399,
  143, 144,
  143, 146,
  143, 147,
  143, 149,
  143, 151,
  143, 152,
  143, 153,
  143, 154,
  143, 155,
  143, 157,
  143, 159,
  143, 162,
  143, 166,
  143, 169,
  143, 176,
  143, 177,
  143, 178,
  143, 179,
  143, 181,
  143, 183,
  143, 186,
  143, 191,
  143, 193,
  143, 194,
  143, 195,
  143, 197,
  143, 198,
  143, 200,
  143, 207,
  143, 210,
  143, 211,
  143, 212,
  143, 215,
  143, 216,
  143, 218,
  143, 219,
  143, 221,
  143, 225,
  143, 228,
  143, 229,
  143, 231,
  143, 232,
  143, 233,
  143, 234,
  143, 237,
  143, 240,
  143, 242,
  143, 245,
  143, 246,
  143, 247,
  143, 249,
  143, 250,
  143, 251,
  143, 254,
  143, 256,
  143, 259,
  143, 260,
  143, 261,
  143, 262,
  143, 264,
  143, 269,
  143, 270,
  143, 272,
  143, 274,
  143, 275,
  143, 276,
  143, 277,
  143, 279,
  143, 280,
  143, 282,
  143, 283,
  143, 285,
  143, 288,
  143, 296,
  143, 298,
  143, 300,
  143, 307,
  143, 310,
  143, 312,
  143, 316,
  143, 319,
  143, 320,
  143, 321,
  143, 322,
  143, 323,
  143, 324,
  143, 327,
  143, 329,
  143, 330,
  143, 331,
  143, 332,
  143, 333,
  143, 334,
  143, 335,
  143, 337,
  143, 338,
  143, 339,
  143, 341,
  143, 342,
  143, 343,
  143, 344,
  143, 349,
  143, 350,
  143, 353,
  143, 361,
  143, 362,
  143, 363,
  143, 364,
  143, 365,
  143, 366,
  143, 367,
  143, 370,
  143, 372,
  143, 373,
  143, 374,
  143, 376,
  143, 377,
  143, 378,
  143, 379,
  143, 383,
  143, 388,
  143, 393,
  143, 394,
  144, 145,
  144, 146,
  144, 149,
  144, 150,
  144, 154,
  144, 158,
  144, 164,
  144, 166,
  144, 172,
  144, 175,
  144, 177,
  144, 180,
  144, 181,
  144, 182,
  144, 183,
  144, 192,
  144, 193,
  144, 196,
  144, 197,
  144, 199,
  144, 200,
  144, 201,
  144, 202,
  144, 204,
  144, 205,
  144, 206,
  144, 207,
  144, 208,
  144, 211,
  144, 212,
  144, 214,
  144, 215,
  144, 217,
  144, 224,
  144, 225,
  144, 228,
  144, 233,
  144, 239,
  144, 240,
  144, 241,
  144, 246,
  144, 248,
  144, 249,
  144, 250,
  144, 253,
  144, 256,
  144, 259,
  144, 260,
  144, 265,
  144, 267,
  144, 268,
  144, 270,
  144, 271,
  144, 273,
  144, 276,
  144, 278,
  144, 280,
  144, 284,
  144, 285,
  144, 287,
  144, 288,
  144, 289,
  144, 293,
  144, 294,
  144, 296,
  144, 298,
  144, 299,
  144, 305,
  144, 311,
  144, 312,
  144, 318,
  144, 319,
  144, 320,
  144, 321,
  144, 323,
  144, 324,
  144, 326,
  144, 329,
  144, 330,
  144, 332,
  144, 333,
  144, 336,
  144, 339,
  144, 342,
  144, 343,
  144, 344,
  144, 347,
  144, 349,
  144, 352,
  144, 353,
  144, 356,
  144, 359,
  144, 361,
  144, 363,
  144, 366,
  144, 367,
  144, 368,
  144, 371,
  144, 374,
  144, 375,
  144, 377,
  144, 381,
  144, 384,
  144, 386,
  144, 388,
  144, 391,
  144, 394,
  144, 400,
  145, 148,
  145, 149,
  145, 151,
  145, 154,
  145, 155,
  145, 158,
  145, 159,
  145, 162,
  145, 163,
  145, 164,
  145, 167,
  145, 169,
  145, 170,
  145, 172,
  145, 176,
  145, 178,
  145, 180,
  145, 183,
  145, 184,
  145, 187,
  145, 188,
  145, 189,
  145, 190,
  145, 191,
  145, 192,
  145, 196,
  145, 198,
  145, 203,
  145, 204,
  145, 205,
  145, 208,
  145, 210,
  145, 211,
  145, 212,
  145, 213,
  145, 214,
  145, 215,
  145, 218,
  145, 219,
  145, 222,
  145, 223,
  145, 224,
  145, 226,
  145, 227,
  145, 228,
  145, 230,
  145, 231,
  145, 234,
  145, 235,
  145, 236,
  145, 238,
  145, 239,
  145, 240,
  145, 242,
  145, 245,
  145, 246,
  145, 247,
  145, 249,
  145, 251,
  145, 252,
  145, 253,
  145, 254,
  145, 256,
  145, 258,
  145, 259,
  145, 262,
  145, 264,
  145, 265,
  145, 266,
  145, 267,
  145, 270,
  145, 271,
  145, 273,
  145, 274,
  145, 275,
  145, 276,
  145, 278,
  145, 281,
  145, 282,
  145, 283,
  145, 284,
  145, 290,
  145, 294,
  145, 295,
  145, 296,
  145, 299,
  145, 300,
  145, 301,
  145, 303,
  145, 304,
  145, 307,
  145, 311,
  145, 312,
  145, 315,
  145, 316,
  145, 317,
  145, 319,
  145, 321,
  145, 324,
  145, 325,
  145, 328,
  145, 329,
  145, 330,
  145, 332,
  145, 333,
  145, 334,
  145, 335,
  145, 336,
  145, 339,
  145, 343,
  145, 344,
  145, 349,
  145, 352,
  145, 353,
  145, 354,
  145, 356,
  145, 357,
  145, 359,
  145, 362,
  145, 372,
  145, 373,
  145, 374,
  145, 375,
  145, 376,
  145, 377,
  145, 378,
  145, 379,
  145, 381,
  145, 382,
  145, 385,
  145, 388,
  145, 390,
  145, 391,
  145, 393,
  145, 394,
  145, 396,
  145, 398,
  146, 147,
  146, 151,
  146, 152,
  146, 155,
  146, 157,
  146, 160,
  146, 161,
  146, 163,
  146, 166,
  146, 167,
  146, 169,
  146, 172,
  146, 173,
  146, 174,
  146, 176,
  146, 180,
  146, 181,
  146, 183,
  146, 184,
  146, 186,
  146, 188,
  146, 192,
  146, 196,
  146, 197,
  146, 200,
  146, 201,
  146, 204,
  146, 207,
  146, 208,
  146, 210,
  146, 212,
  146, 214,
  146, 215,
  146, 217,
  146, 218,
  146, 219,
  146, 220,
  146, 221,
  146, 223,
  146, 226,
  146, 227,
  146, 228,
  146, 229,
  146, 230,
  146, 231,
  146, 236,
  146, 237,
  146, 241,
  146, 242,
  146, 243,
  146, 246,
  146, 247,
  146, 248,
  146, 252,
  146, 259,
  146, 263,
  146, 264,
  146, 265,
  146, 266,
  146, 267,
  146, 268,
  146, 270,
  146, 273,
  146, 275,
  146, 276,
  146, 277,
  146, 278,
  146, 279,
  146, 280,
  146, 282,
  146, 285,
  146, 290,
  146, 292,
  146, 293,
  146, 294,
  146, 296,
  146, 303,
  146, 308,
  146, 310,
  146, 313,
  146, 315,
  146, 319,
  146, 321,
  146, 323,
  146, 326,
  146, 327,
  146, 329,
  146, 331,
  146, 332,
  146, 337,
  146, 338,
  146, 339,
  146, 340,
  146, 341,
  146, 342,
  146, 345,
  146, 349,
  146, 351,
  146, 352,
  146, 353,
  146, 354,
  146, 355,
  146, 356,
  146, 357,
  146, 358,
  146, 361,
  146, 362,
  146, 363,
  146, 366,
  146, 368,
  146, 369,
  146, 370,
  146, 371,
  146, 372,
  146, 373,
  146, 375,
  146, 378,
  146, 379,
  146, 380,
  146, 381,
  146, 382,
  146, 385,
  146, 386,
  146, 387,
  146, 390,
  146, 391,
  146, 392,
  146, 395,
  146, 396,
  146, 398,
  146, 399,
  146, 400,
  147, 148,
  147, 149,
  147, 150,
  147, 154,
  147, 155,
  147, 156,
  147, 159,
  147, 160,
  147, 161,
  147, 163,
  147, 165,
  147, 166,
  147, 171,
  147, 172,
  147, 173,
  147, 177,
  147, 179,
  147, 181,
  147, 182,
  147, 184,
  147, 185,
  147, 188,
  147, 189,
  147, 190,
  147, 192,
  147, 193,
  147, 195,
  147, 200,
  147, 201,
  147, 205,
  147, 211,
  147, 213,
  147, 215,
  147, 217,
  147, 218,
  147, 220,
  147, 221,
  147, 223,
  147, 224,
  147, 225,
  147, 226,
  147, 228,
  147, 230,
  147, 231,
  147, 232,
  147, 234,
  147, 235,
  147, 237,
  147, 244,
  147, 247,
  147, 248,
  147, 250,
  147, 252,
  147, 254,
  147, 255,
  147, 258,
  147, 259,
  147, 261,
  147, 262,
  147, 263,
  147, 266,
  147, 267,
  147, 268,
  147, 269,
  147, 275,
  147, 277,
  147, 278,
  147, 280,
  147, 281,
  147, 283,
  147, 284,
  147, 286,
  147, 288,
  147, 290,
  147, 292,
  147, 293,
  147, 295,
  147, 297,
  147, 298,
  147, 300,
  147, 301,
  147, 302,
  147, 305,
  147, 307,
  147, 308,
  147, 309,
  147, 310,
  147, 311,
  147, 313,
  147, 315,
  147, 316,
  147, 318,
  147, 320,
  147, 321,
  147, 322,
  147, 325,
  147, 326,
  147, 328,
  147, 331,
  147, 332,
  147, 333,
  147, 334,
  147, 335,
  147, 337,
  147, 338,
  147, 339,
  147, 341,
  147, 342,
  147, 347,
  147, 348,
  147, 354,
  147, 355,
  147, 359,
  147, 361,
  147, 364,
  147, 368,
  147, 369,
  147, 371,
  147, 372,
  147, 375,
  147, 376,
  147, 377,
  147, 380,
  147, 381,
  147, 382,
  147, 384,
  147, 385,
  147, 386,
  147, 390,
  147, 391,
  147, 394,
  147, 395,
  147, 396,
  147, 397,
  147, 398,
  147, 400,
  148, 151,
  148, 153,
  148, 157,
  148, 160,
  148, 163,
  148, 164,
  148, 166,
  148, 167,
  148, 169,
  148, 170,
  148, 174,
  148, 176,
  148, 177,
  148, 181,
  148, 182,
  148, 184,
  148, 187,
  148, 188,
  148, 189,
  148, 190,
  148, 193,
  148, 197,
  148, 198,
  148, 199,
  148, 200,
  148, 201,
  148, 205,
  148, 206,
  148, 207,
  148, 213,
  148, 222,
  148, 225,
  148, 226,
  148, 228,
  148, 229,
  148, 231,
  148, 232,
  148, 233,
  148, 234,
  148, 235,
  148, 237,
  148, 240,
  148, 241,
  148, 243,
  148, 244,
  148, 246,
  148, 247,
  148, 248,
  148, 249,
  148, 252,
  148, 255,
  148, 257,
  148, 259,
  148, 260,
  148, 262,
  148, 264,
  148, 265,
  148, 268,
  148, 271,
  148, 275,
  148, 276,
  148, 277,
  148, 280,
  148, 281,
  148, 286,
  148, 287,
  148, 288,
  148, 290,
  148, 294,
  148, 295,
  148, 296,
  148, 304,
  148, 305,
  148, 306,
  148, 307,
  148, 308,
  148, 309,
  148, 311,
  148, 312,
  148, 316,
  148, 317,
  148, 320,
  148, 323,
  148, 329,
  148, 331,
  148, 333,
  148, 335,
  148, 339,
  148, 344,
  148, 345,
  148, 346,
  148, 347,
  148, 352,
  148, 354,
  148, 360,
  148, 362,
  148, 363,
  148, 364,
  148, 365,
  148, 366,
  148, 369,
  148, 371,
  148, 373,
  148, 376,
  148, 378,
  148, 379,
  148, 381,
  148, 384,
  148, 387,
  148, 388,
  148, 392,
  148, 395,
  148, 398,
  148, 400,
  149, 151,
  149, 155,
  149, 157,
  149, 158,
  149, 159,
  149, 160,
  149, 161,
  149, 162,
  149, 163,
  149, 165,
  149, 167,
  149, 171,
  149, 173,
  149, 174,
  149, 177,
  149, 179,
  149, 181,
  149, 184,
  149, 186,
  149, 188,
  149, 189,
  149, 192,
  149, 194,
  149, 195,
  149, 198,
  149, 199,
  149, 200,
  149, 201,
  149, 202,
  149, 203,
  149, 204,
  149, 205,
  149, 207,
  149, 208,
  149, 211,
  149, 212,
  149, 214,
  149, 215,
  149, 220,
  149, 226,
  149, 227,
  149, 230,
  149, 231,
  149, 233,
  149, 234,
  149, 236,
  149, 237,
  149, 238,
  149, 240,
  149, 241,
  149, 244,
  149, 245,
  149, 246,
  149, 248,
  149, 249,
  149, 254,
  149, 256,
  149, 258,
  149, 259,
  149, 260,
  149, 261,
  149, 262,
  149, 263,
  149, 265,
  149, 269,
  149, 271,
  149, 272,
  149, 273,
  149, 276,
  149, 282,
  149, 283,
  149, 284,
  149, 288,
  149, 291,
  149, 293,
  149, 294,
  149, 299,
  149, 303,
  149, 306,
  149, 308,
  149, 309,
  149, 311,
  149, 312,
  149, 314,
  149, 315,
  149, 317,
  149, 318,
  149, 319,
  149, 320,
  149, 324,
  149, 325,
  149, 327,
  149, 329,
  149, 332,
  149, 333,
  149, 334,
  149, 338,
  149, 339,
  149, 340,
  149, 342,
  149, 345,
  149, 347,
  149, 355,
  149, 356,
  149, 357,
  149, 360,
  149, 361,
  149, 363,
  149, 365,
  149, 367,
  149, 369,
  149, 372,
  149, 374,
  149, 376,
  149, 377,
  149, 378,
  149, 381,
  149, 382,
  149, 384,
  149, 385,
  149, 386,
  149, 387,
  149, 388,
  149, 391,
  149, 393,
  149, 394,
  149, 396,
  149, 398,
  150, 151,
  150, 152,
  150, 155,
  150, 159,
  150, 163,
  150, 164,
  150, 166,
  150, 167,
  150, 168,
  150, 170,
  150, 171,
  150, 172,
  150, 176,
  150, 177,
  150, 179,
  150, 180,
  150, 182,
  150, 184,
  150, 191,
  150, 197,
  150, 198,
  150, 199,
  150, 201,
  150, 202,
  150, 205,
  150, 208,
  150, 212,
  150, 213,
  150, 215,
  150, 216,
  150, 218,
  150, 219,
  150, 224,
  150, 225,
  150, 226,
  150, 227,
  150, 229,
  150, 231,
  150, 232,
  150, 233,
  150, 234,
  150, 235,
  150, 236,
  150, 237,
  150, 240,
  150, 241,
  150, 242,
  150, 243,
  150, 244,
  150, 246,
  150, 247,
  150, 248,
  150, 249,
  150, 250,
  150, 251,
  150, 252,
  150, 255,
  150, 258,
  150, 262,
  150, 263,
  150, 264,
  150, 271,
  150, 272,
  150, 273,
  150, 276,
  150, 277,
  150, 281,
  150, 282,
  150, 283,
  150, 284,
  150, 285,
  150, 286,
  150, 289,
  150, 290,
  150, 291,
  150, 292,
  150, 294,
  150, 299,
  150, 300,
  150, 302,
  150, 303,
  150, 304,
  150, 306,
  150, 309,
  150, 312,
  150, 314,
  150, 315,
  150, 316,
  150, 317,
  150, 319,
  150, 322,
  150, 324,
  150, 325,
  150, 326,
  150, 327,
  150, 329,
  150, 330,
  150, 332,
  150, 333,
  150, 334,
  150, 337,
  150, 339,
  150, 340,
  150, 341,
  150, 343,
  150, 347,
  150, 348,
  150, 350,
  150, 351,
  150, 358,
  150, 360,
  150, 361,
  150, 362,
  150, 363,
  150, 364,
  150, 365,
  150, 367,
  150, 368,
  150, 369,
  150, 370,
  150, 371,
  150, 372,
  150, 375,
  150, 377,
  150, 379,
  150, 381,
  150, 387,
  150, 388,
  150, 390,
  150, 396,
  150, 397,
  150, 399,
  150, 400,
  151, 153,
  151, 155,
  151, 160,
  151, 161,
  151, 162,
  151, 165,
  151, 166,
  151, 168,
  151, 169,
  151, 175,
  151, 176,
  151, 177,
  151, 178,
  151, 179,
  151, 181,
  151, 184,
  151, 185,
  151, 190,
  151, 193,
  151, 194,
  151, 197,
  151, 199,
  151, 201,
  151, 203,
  151, 204,
  151, 209,
  151, 210,
  151, 212,
  151, 213,
  151, 214,
  151, 215,
  151, 216,
  151, 217,
  151, 218,
  151, 221,
  151, 222,
  151, 223,
  151, 224,
  151, 227,
  151, 228,
  151, 231,
  151, 232,
  151, 234,
  151, 236,
  151, 238,
  151, 239,
  151, 240,
  151, 242,
  151, 244,
  151, 245,
  151, 248,
  151, 249,
  151, 250,
  151, 257,
  151, 259,
  151, 264,
  151, 266,
  151, 269,
  151, 273,
  151, 275,
  151, 277,
  151, 279,
  151, 280,
  151, 282,
  151, 285,
  151, 286,
  151, 287,
  151, 288,
  151, 289,
  151, 290,
  151, 294,
  151, 296,
  151, 298,
  151, 302,
  151, 306,
  151, 307,
  151, 309,
  151, 311,
  151, 312,
  151, 313,
  151, 317,
  151, 319,
  151, 322,
  151, 324,
  151, 326,
  151, 327,
  151, 328,
  151, 337,
  151, 340,
  151, 342,
  151, 343,
  151, 345,
  151, 350,
  151, 351,
  151, 352,
  151, 354,
  151, 355,
  151, 356,
  151, 359,
  151, 362,
  151, 364,
  151, 367,
  151, 368,
  151, 370,
  151, 371,
  151, 375,
  151, 377,
  151, 379,
  151, 380,
  151, 381,
  151, 383,
  151, 384,
  151, 385,
  151, 387,
  151, 389,
  151, 390,
  151, 392,
  151, 396,
  151, 398,
  152, 153,
  152, 155,
  152, 156,
  152, 157,
  152, 159,
  152, 164,
  152, 165,
  152, 170,
  152, 171,
  152, 174,
  152, 175,
  152, 180,
  152, 187,
  152, 189,
  152, 190,
  152, 191,
  152, 192,
  152, 193,
  152, 194,
  152, 195,
  152, 196,
  152, 197,
  152, 199,
  152, 200,
  152, 201,
  152, 202,
  152, 204,
  152, 205,
  152, 207,
  152, 208,
  152, 209,
  152, 212,
  152, 213,
  152, 214,
  152, 216,
  152, 222,
  152, 223,
  152, 224,
  152, 225,
  152, 230,
  152, 231,
  152, 232,
  152, 234,
  152, 235,
  152, 238,
  152, 239,
  152, 240,
  152, 243,
  152, 244,
  152, 245,
  152, 246,
  152, 247,
  152, 248,
  152, 251,
  152, 253,
  152, 254,
  152, 255,
  152, 257,
  152, 258,
  152, 261,
  152, 262,
  152, 263,
  152, 268,
  152, 269,
  152, 271,
  152, 272,
  152, 273,
  152, 274,
  152, 275,
  152, 276,
  152, 277,
  152, 280,
  152, 281,
  152, 284,
  152, 287,
  152, 289,
  152, 290,
  152, 294,
  152, 295,
  152, 296,
  152, 298,
  152, 301,
  152, 302,
  152, 304,
  152, 306,
  152, 308,
  152, 310,
  152, 311,
  152, 313,
  152, 314,
  152, 320,
  152, 321,
  152, 322,
  152, 323,
  152, 325,
  152, 327,
  152, 328,
  152, 332,
  152, 333,
  152, 334,
  152, 336,
  152, 340,
  152, 341,
  152, 342,
  152, 343,
  152, 344,
  152, 345,
  152, 347,
  152, 348,
  152, 351,
  152, 353,
  152, 356,
  152, 359,
  152, 360,
  152, 362,
  152, 363,
  152, 364,
  152, 366,
  152, 368,
  152, 373,
  152, 374,
  152, 376,
  152, 377,
  152, 378,
  152, 379,
  152, 382,
  152, 383,
  152, 385,
  152, 386,
  152, 388,
  152, 390,
  152, 392,
  152, 399,
  152, 400,
  153, 156,
  153, 158,
  153, 160,
  153, 164,
  153, 165,
  153, 166,
  153, 167,
  153, 169,
  153, 170,
  153, 176,
  153, 177,
  153, 179,
  153, 183,
  153, 184,
  153, 185,
  153, 188,
  153, 192,
  153, 194,
  153, 199,
  153, 201,
  153, 203,
  153, 204,
  153, 207,
  153, 209,
  153, 212,
  153, 213,
  153, 215,
  153, 216,
  153, 220,
  153, 221,
  153, 223,
  153, 225,
  153, 227,
  153, 229,
  153, 230,
  153, 231,
  153, 232,
  153, 233,
  153, 234,
  153, 236,
  153, 237,
  153, 239,
  153, 241,
  153, 243,
  153, 245,
  153, 247,
  153, 251,
  153, 254,
  153, 255,
  153, 259,
  153, 260,
  153, 261,
  153, 264,
  153, 265,
  153, 266,
  153, 267,
  153, 268,
  153, 272,
  153, 273,
  153, 275,
  153, 276,
  153, 277,
  153, 278,
  153, 279,
  153, 281,
  153, 283,
  153, 285,
  153, 286,
  153, 287,
  153, 290,
  153, 291,
  153, 293,
  153, 294,
  153, 296,
  153, 297,
  153, 298,
  153, 301,
  153, 302,
  153, 303,
  153, 304,
  153, 306,
  153, 307,
  153, 310,
  153, 312,
  153, 313,
  153, 319,
  153, 320,
  153, 322,
  153, 323,
  153, 324,
  153, 326,
  153, 327,
  153, 328,
  153, 329,
  153, 331,
  153, 333,
  153, 334,
  153, 336,
  153, 340,
  153, 343,
  153, 347,
  153, 350,
  153, 352,
  153, 355,
  153, 356,
  153, 357,
  153, 358,
  153, 362,
  153, 364,
  153, 366,
  153, 367,
  153, 370,
  153, 373,
  153, 374,
  153, 376,
  153, 377,
  153, 379,
  153, 384,
  153, 387,
  153, 388,
  153, 393,
  153, 395,
  154, 155,
  154, 156,
  154, 157,
  154, 162,
  154, 164,
  154, 166,
  154, 169,
  154, 171,
  154, 174,
  154, 175,
  154, 176,
  154, 178,
  154, 181,
  154, 186,
  154, 190,
  154, 192,
  154, 194,
  154, 195,
  154, 198,
  154, 201,
  154, 208,
  154, 212,
  154, 214,
  154, 215,
  154, 218,
  154, 219,
  154, 221,
  154, 223,
  154, 224,
  154, 225,
  154, 226,
  154, 227,
  154, 229,
  154, 232,
  154, 234,
  154, 235,
  154, 236,
  154, 238,
  154, 239,
  154, 241,
  154, 244,
  154, 246,
  154, 247,
  154, 250,
  154, 252,
  154, 253,
  154, 256,
  154, 260,
  154, 261,
  154, 265,
  154, 267,
  154, 268,
  154, 269,
  154, 273,
  154, 276,
  154, 278,
  154, 279,
  154, 281,
  154, 288,
  154, 294,
  154, 296,
  154, 299,
  154, 304,
  154, 306,
  154, 307,
  154, 308,
  154, 309,
  154, 312,
  154, 313,
  154, 315,
  154, 316,
  154, 318,
  154, 319,
  154, 320,
  154, 321,
  154, 324,
  154, 327,
  154, 328,
  154, 329,
  154, 330,
  154, 331,
  154, 332,
  154, 333,
  154, 334,
  154, 335,
  154, 336,
  154, 338,
  154, 339,
  154, 341,
  154, 344,
  154, 346,
  154, 348,
  154, 353,
  154, 359,
  154, 360,
  154, 361,
  154, 362,
  154, 363,
  154, 367,
  154, 368,
  154, 370,
  154, 372,
  154, 373,
  154, 374,
  154, 376,
  154, 379,
  154, 380,
  154, 384,
  154, 386,
  154, 387,
  154, 389,
  154, 391,
  154, 394,
  154, 396,
  154, 398,
  155, 156,
  155, 158,
  155, 159,
  155, 160,
  155, 161,
  155, 162,
  155, 163,
  155, 167,
  155, 170,
  155, 172,
  155, 180,
  155, 181,
  155, 183,
  155, 186,
  155, 187,
  155, 190,
  155, 192,
  155, 195,
  155, 200,
  155, 201,
  155, 202,
  155, 203,
  155, 204,
  155, 209,
  155, 211,
  155, 212,
  155, 214,
  155, 218,
  155, 219,
  155, 220,
  155, 225,
  155, 226,
  155, 228,
  155, 230,
  155, 232,
  155, 233,
  155, 234,
  155, 235,
  155, 236,
  155, 237,
  155, 238,
  155, 240,
  155, 244,
  155, 248,
  155, 251,
  155, 253,
  155, 254,
  155, 255,
  155, 263,
  155, 265,
  155, 269,
  155, 274,
  155, 277,
  155, 280,
  155, 282,
  155, 283,
  155, 284,
  155, 286,
  155, 287,
  155, 289,
  155, 290,
  155, 291,
  155, 292,
  155, 293,
  155, 295,
  155, 299,
  155, 301,
  155, 302,
  155, 303,
  155, 305,
  155, 306,
  155, 307,
  155, 309,
  155, 311,
  155, 312,
  155, 316,
  155, 318,
  155, 321,
  155, 322,
  155, 323,
  155, 326,
  155, 327,
  155, 328,
  155, 330,
  155, 332,
  155, 333,
  155, 339,
  155, 341,
  155, 343,
  155, 346,
  155, 347,
  155, 349,
  155, 353,
  155, 357,
  155, 358,
  155, 360,
  155, 361,
  155, 362,
  155, 364,
  155, 365,
  155, 366,
  155, 367,
  155, 370,
  155, 371,
  155, 373,
  155, 377,
  155, 378,
  155, 379,
  155, 380,
  155, 381,
  155, 383,
  155, 385,
  155, 388,
  155, 389,
  155, 391,
  155, 392,
  155, 393,
  155, 394,
  155, 395,
  155, 396,
  155, 398,
  155, 400,
  156, 157,
  156, 160,
  156, 162,
  156, 163,
  156, 164,
  156, 166,
  156, 167,
  156, 169,
  156, 171,
  156, 174,
  156, 179,
  156, 180,
  156, 181,
  156, 183,
  156, 184,
  156, 185,
  156, 187,
  156, 191,
  156, 199,
  156, 201,
  156, 202,
  156, 203,
  156, 204,
  156, 207,
  156, 208,
  156, 209,
  156, 210,
  156, 211,
  156, 212,
  156, 214,
  156, 216,
  156, 217,
  156, 220,
  156, 221,
  156, 223,
  156, 224,
  156, 225,
  156, 226,
  156, 231,
  156, 233,
  156, 234,
  156, 237,
  156, 238,
  156, 242,
  156, 245,
  156, 246,
  156, 249,
  156, 253,
  156, 255,
  156, 257,
  156, 258,
  156, 262,
  156, 267,
  156, 268,
  156, 270,
  156, 274,
  156, 275,
  156, 277,
  156, 279,
  156, 283,
  156, 285,
  156, 287,
  156, 288,
  156, 290,
  156, 291,
  156, 295,
  156, 298,
  156, 299,
  156, 300,
  156, 301,
  156, 304,
  156, 305,
  156, 307,
  156, 308,
  156, 309,
  156, 310,
  156, 312,
  156, 313,
  156, 314,
  156, 319,
  156, 320,
  156, 322,
  156, 323,
  156, 324,
  156, 325,
  156, 327,
  156, 329,
  156, 331,
  156, 334,
  156, 337,
  156, 340,
  156, 341,
  156, 342,
  156, 345,
  156, 352,
  156, 353,
  156, 354,
  156, 355,
  156, 357,
  156, 359,
  156, 360,
  156, 363,
  156, 365,
  156, 366,
  156, 367,
  156, 369,
  156, 371,
  156, 374,
  156, 376,
  156, 377,
  156, 379,
  156, 383,
  156, 384,
  156, 385,
  156, 386,
  156, 387,
  156, 389,
  156, 390,
  156, 393,
  156, 394,
  156, 398,
  156, 399,
  157, 159,
  157, 160,
  157, 162,
  157, 164,
  157, 167,
  157, 168,
  157, 169,
  157, 172,
  157, 174,
  157, 175,
  157, 178,
  157, 180,
  157, 181,
  157, 183,
  157, 184,
  157, 189,
  157, 192,
  157, 193,
  157, 194,
  157, 196,
  157, 199,
  157, 202,
  157, 204,
  157, 207,
  157, 208,
  157, 209,
  157, 210,
  157, 218,
  157, 221,
  157, 222,
  157, 227,
  157, 230,
  157, 232,
  157, 234,
  157, 237,
  157, 238,
  157, 239,
  157, 243,
  157, 244,
  157, 245,
  157, 248,
  157, 251,
  157, 252,
  157, 253,
  157, 256,
  157, 258,
  157, 259,
  157, 260,
  157, 262,
  157, 265,
  157, 266,
  157, 267,
  157, 268,
  157, 269,
  157, 271,
  157, 273,
  157, 274,
  157, 276,
  157, 278,
  157, 279,
  157, 280,
  157, 281,
  157, 282,
  157, 284,
  157, 286,
  157, 287,
  157, 290,
  157, 291,
  157, 292,
  157, 296,
  157, 298,
  157, 307,
  157, 308,
  157, 310,
  157, 311,
  157, 312,
  157, 313,
  157, 315,
  157, 316,
  157, 317,
  157, 321,
  157, 322,
  157, 324,
  157, 325,
  157, 328,
  157, 332,
  157, 334,
  157, 336,
  157, 341,
  157, 346,
  157, 347,
  157, 348,
  157, 349,
  157, 352,
  157, 353,
  157, 356,
  157, 361,
  157, 362,
  157, 363,
  157, 365,
  157, 368,
  157, 374,
  157, 377,
  157, 378,
  157, 383,
  157, 387,
  157, 389,
  157, 390,
  157, 391,
  157, 396,
  157, 398,
  157, 399,
  158, 160,
  158, 162,
  158, 163,
  158, 164,
  158, 169,
  158, 171,
  158, 172,
  158, 173,
  158, 174,
  158, 175,
  158, 177,
  158, 179,
  158, 180,
  158, 181,
  158, 183,
  158, 185,
  158, 186,
  158, 189,
  158, 190,
  158, 191,
  158, 192,
  158, 193,
  158, 195,
  158, 199,
  158, 200,
  158, 201,
  158, 204,
  158, 205,
  158, 207,
  158, 208,
  158, 210,
  158, 211,
  158, 215,
  158, 216,
  158, 217,
  158, 218,
  158, 219,
  158, 221,
  158, 222,
  158, 223,
  158, 228,
  158, 229,
  158, 233,
  158, 237,
  158, 238,
  158, 241,
  158, 242,
  158, 243,
  158, 247,
  158, 248,
  158, 250,
  158, 252,
  158, 257,
  158, 259,
  158, 263,
  158, 268,
  158, 269,
  158, 271,
  158, 272,
  158, 276,
  158, 277,
  158, 279,
  158, 281,
  158, 283,
  158, 284,
  158, 287,
  158, 288,
  158, 290,
  158, 292,
  158, 293,
  158, 294,
  158, 296,
  158, 297,
  158, 303,
  158, 305,
  158, 307,
  158, 308,
  158, 309,
  158, 312,
  158, 316,
  158, 319,
  158, 322,
  158, 323,
  158, 324,
  158, 326,
  158, 329,
  158, 330,
  158, 332,
  158, 333,
  158, 335,
  158, 337,
  158, 338,
  158, 339,
  158, 340,
  158, 341,
  158, 342,
  158, 344,
  158, 345,
  158, 346,
  158, 349,
  158, 350,
  158, 351,
  158, 355,
  158, 356,
  158, 359,
  158, 362,
  158, 368,
  158, 370,
  158, 374,
  158, 375,
  158, 376,
  158, 377,
  158, 378,
  158, 380,
  158, 381,
  158, 384,
  158, 385,
  158, 386,
  158, 393,
  158, 394,
  158, 395,
  158, 396,
  158, 397,
  158, 399,
  158, 400,
  159, 162,
  159, 164,
  159, 165,
  159, 166,
  159, 168,
  159, 169,
  159, 170,
  159, 171,
  159, 172,
  159, 175,
  159, 177,
  159, 178,
  159, 181,
  159, 182,
  159, 183,
  159, 184,
  159, 185,
  159, 187,
  159, 188,
  159, 190,
  159, 193,
  159, 194,
  159, 197,
  159, 199,
  159, 201,
  159, 205,
  159, 207,
  159, 208,
  159, 211,
  159, 213,
  159, 214,
  159, 216,
  159, 220,
  159, 222,
  159, 225,
  159, 226,
  159, 227,
  159, 230,
  159, 232,
  159, 233,
  159, 235,
  159, 238,
  159, 239,
  159, 241,
  159, 242,
  159, 243,
  159, 245,
  159, 246,
  159, 248,
  159, 251,
  159, 259,
  159, 261,
  159, 262,
  159, 264,
  159, 266,
  159, 268,
  159, 269,
  159, 270,
  159, 271,
  159, 272,
  159, 273,
  159, 274,
  159, 276,
  159, 278,
  159, 279,
  159, 283,
  159, 284,
  159, 285,
  159, 288,
  159, 289,
  159, 291,
  159, 292,
  159, 293,
  159, 294,
  159, 296,
  159, 297,
  159, 303,
  159, 304,
  159, 306,
  159, 309,
  159, 310,
  159, 312,
  159, 313,
  159, 316,
  159, 317,
  159, 319,
  159, 320,
  159, 327,
  159, 328,
  159, 329,
  159, 330,
  159, 333,
  159, 334,
  159, 336,
  159, 337,
  159, 339,
  159, 340,
  159, 342,
  159, 347,
  159, 349,
  159, 350,
  159, 352,
  159, 355,
  159, 358,
  159, 360,
  159, 361,
  159, 362,
  159, 366,
  159, 368,
  159, 369,
  159, 371,
  159, 374,
  159, 376,
  159, 377,
  159, 378,
  159, 380,
  159, 382,
  159, 387,
  159, 388,
  159, 389,
  159, 390,
  159, 391,
  159, 392,
  159, 393,
  159, 398,
  159, 399,
  160, 162,
  160, 165,
  160, 167,
  160, 168,
  160, 169,
  160, 173,
  160, 174,
  160, 175,
  160, 176,
  160, 177,
  160, 180,
  160, 181,
  160, 184,
  160, 185,
  160, 186,
  160, 187,
  160, 188,
  160, 190,
  160, 191,
  160, 194,
  160, 195,
  160, 197,
  160, 204,
  160, 207,
  160, 209,
  160, 211,
  160, 215,
  160, 221,
  160, 222,
  160, 223,
  160, 226,
  160, 229,
  160, 231,
  160, 236,
  160, 238,
  160, 239,
  160, 241,
  160, 243,
  160, 244,
  160, 246,
  160, 250,
  160, 251,
  160, 252,
  160, 255,
  160, 256,
  160, 258,
  160, 262,
  160, 265,
  160, 268,
  160, 270,
  160, 271,
  160, 273,
  160, 274,
  160, 275,
  160, 277,
  160, 280,
  160, 283,
  160, 285,
  160, 286,
  160, 287,
  160, 290,
  160, 291,
  160, 293,
  160, 294,
  160, 295,
  160, 296,
  160, 299,
  160, 300,
  160, 303,
  160, 305,
  160, 307,
  160, 308,
  160, 309,
  160, 310,
  160, 311,
  160, 320,
  160, 321,
  160, 322,
  160, 325,
  160, 328,
  160, 329,
  160, 330,
  160, 332,
  160, 333,
  160, 334,
  160, 338,
  160, 341,
  160, 344,
  160, 347,
  160, 350,
  160, 351,
  160, 354,
  160, 359,
  160, 365,
  160, 366,
  160, 369,
  160, 371,
  160, 372,
  160, 373,
  160, 375,
  160, 377,
  160, 378,
  160, 379,
  160, 383,
  160, 384,
  160, 385,
  160, 387,
  160, 389,
  160, 390,
  160, 392,
  160, 393,
  160, 394,
  160, 397,
  160, 398,
  160, 399,
  160, 400,
  161, 162,
  161, 163,
  161, 165,
  161, 166,
  161, 168,
  161, 169,
  161, 170,
  161, 172,
  161, 173,
  161, 181,
  161, 182,
  161, 183,
  161, 185,
  161, 186,
  161, 187,
  161, 188,
  161, 192,
  161, 194,
  161, 197,
  161, 198,
  161, 199,
  161, 200,
  161, 201,
  161, 203,
  161, 204,
  161, 206,
  161, 207,
  161, 208,
  161, 209,
  161, 210,
  161, 212,
  161, 213,
  161, 214,
  161, 217,
  161, 221,
  161, 223,
  161, 225,
  161, 227,
  161, 228,
  161, 229,
  161, 230,
  161, 234,
  161, 235,
  161, 237,
  161, 238,
  161, 239,
  161, 241,
  161, 245,
  161, 247,
  161, 248,
  161, 250,
  161, 253,
  161, 254,
  161, 255,
  161, 258,
  161, 259,
  161, 260,
  161, 263,
  161, 264,
  161, 266,
  161, 269,
  161, 270,
  161, 271,
  161, 273,
  161, 276,
  161, 282,
  161, 283,
  161, 285,
  161, 286,
  161, 287,
  161, 289,
  161, 292,
  161, 293,
  161, 294,
  161, 295,
  161, 296,
  161, 299,
  161, 300,
  161, 301,
  161, 302,
  161, 306,
  161, 307,
  161, 308,
  161, 313,
  161, 314,
  161, 315,
  161, 316,
  161, 318,
  161, 320,
  161, 321,
  161, 322,
  161, 323,
  161, 326,
  161, 328,
  161, 329,
  161, 336,
  161, 337,
  161, 341,
  161, 342,
  161, 343,
  161, 350,
  161, 351,
  161, 352,
  161, 353,
  161, 354,
  161, 355,
  161, 356,
  161, 357,
  161, 358,
  161, 360,
  161, 361,
  161, 362,
  161, 368,
  161, 370,
  161, 376,
  161, 378,
  161, 380,
  161, 381,
  161, 382,
  161, 383,
  161, 384,
  161, 386,
  161, 390,
  161, 391,
  161, 394,
  161, 395,
  161, 396,
  161, 397,
  161, 398,
  162, 163,
  162, 165,
  162, 166,
  162, 167,
  162, 168,
  162, 169,
  162, 171,
  162, 177,
  162, 181,
  162, 184,
  162, 186,
  162, 187,
  162, 191,
  162, 192,
  162, 195,
  162, 198,
  162, 200,
  162, 201,
  162, 203,
  162, 208,
  162, 209,
  162, 211,
  162, 213,
  162, 215,
  162, 218,
  162, 220,
  162, 221,
  162, 224,
  162, 229,
  162, 231,
  162, 233,
  162, 234,
  162, 236,
  162, 238,
  162, 241,
  162, 242,
  162, 243,
  162, 246,
  162, 248,
  162, 249,
  162, 250,
  162, 252,
  162, 253,
  162, 254,
  162, 255,
  162, 260,
  162, 261,
  162, 262,
  162, 263,
  162, 264,
  162, 265,
  162, 270,
  162, 271,
  162, 272,
  162, 273,
  162, 274,
  162, 277,
  162, 278,
  162, 282,
  162, 287,
  162, 288,
  162, 292,
  162, 293,
  162, 295,
  162, 296,
  162, 297,
  162, 299,
  162, 300,
  162, 301,
  162, 302,
  162, 306,
  162, 307,
  162, 309,
  162, 311,
  162, 312,
  162, 313,
  162, 316,
  162, 317,
  162, 318,
  162, 319,
  162, 320,
  162, 321,
  162, 326,
  162, 328,
  162, 329,
  162, 330,
  162, 331,
  162, 332,
  162, 334,
  162, 338,
  162, 340,
  162, 341,
  162, 343,
  162, 345,
  162, 347,
  162, 348,
  162, 350,
  162, 353,
  162, 354,
  162, 356,
  162, 358,
  162, 360,
  162, 362,
  162, 364,
  162, 365,
  162, 366,
  162, 368,
  162, 372,
  162, 373,
  162, 377,
  162, 379,
  162, 380,
  162, 381,
  162, 385,
  162, 386,
  162, 391,
  162, 392,
  162, 394,
  162, 395,
  162, 397,
  162, 398,
  162, 399,
  163, 164,
  163, 165,
  163, 166,
  163, 167,
  163, 168,
  163, 170,
  163, 174,
  163, 178,
  163, 179,
  163, 181,
  163, 183,
  163, 185,
  163, 186,
  163, 188,
  163, 190,
  163, 192,
  163, 193,
  163, 194,
  163, 201,
  163, 203,
  163, 207,
  163, 210,
  163, 211,
  163, 213,
  163, 215,
  163, 217,
  163, 219,
  163, 221,
  163, 224,
  163, 225,
  163, 226,
  163, 227,
  163, 228,
  163, 231,
  163, 232,
  163, 233,
  163, 234,
  163, 235,
  163, 239,
  163, 240,
  163, 241,
  163, 242,
  163, 243,
  163, 244,
  163, 245,
  163, 246,
  163, 248,
  163, 252,
  163, 253,
  163, 254,
  163, 255,
  163, 257,
  163, 258,
  163, 266,
  163, 267,
  163, 269,
  163, 271,
  163, 276,
  163, 277,
  163, 278,
  163, 279,
  163, 280,
  163, 289,
  163, 292,
  163, 293,
  163, 294,
  163, 295,
  163, 296,
  163, 298,
  163, 299,
  163, 300,
  163, 301,
  163, 302,
  163, 303,
  163, 305,
  163, 308,
  163, 310,
  163, 311,
  163, 312,
  163, 314,
  163, 319,
  163, 322,
  163, 324,
  163, 327,
  163, 331,
  163, 332,
  163, 333,
  163, 334,
  163, 335,
  163, 339,
  163, 340,
  163, 341,
  163, 342,
  163, 350,
  163, 351,
  163, 352,
  163, 354,
  163, 355,
  163, 356,
  163, 360,
  163, 361,
  163, 363,
  163, 364,
  163, 366,
  163, 371,
  163, 372,
  163, 374,
  163, 375,
  163, 377,
  163, 380,
  163, 382,
  163, 385,
  163, 386,
  163, 387,
  163, 389,
  163, 391,
  163, 395,
  163, 397,
  163, 398,
  163, 399,
  164, 167,
  164, 172,
  164, 173,
  164, 174,
  164, 175,
  164, 176,
  164, 178,
  164, 179,
  164, 180,
  164, 183,
  164, 185,
  164, 186,
  164, 188,
  164, 189,
  164, 191,
  164, 193,
  164, 194,
  164, 195,
  164, 198,
  164, 202,
  164, 203,
  164, 204,
  164, 205,
  164, 206,
  164, 207,
  164, 212,
  164, 213,
  164, 215,
  164, 217,
  164, 223,
  164, 224,
  164, 226,
  164, 227,
  164, 231,
  164, 233,
  164, 235,
  164, 236,
  164, 244,
  164, 247,
  164, 249,
  164, 250,
  164, 252,
  164, 256,
  164, 258,
  164, 259,
  164, 260,
  164, 262,
  164, 267,
  164, 270,
  164, 271,
  164, 272,
  164, 274,
  164, 275,
  164, 276,
  164, 277,
  164, 280,
  164, 282,
  164, 283,
  164, 284,
  164, 285,
  164, 286,
  164, 288,
  164, 291,
  164, 292,
  164, 293,
  164, 298,
  164, 299,
  164, 300,
  164, 301,
  164, 304,
  164, 305,
  164, 307,
  164, 309,
  164, 311,
  164, 312,
  164, 314,
  164, 315,
  164, 318,
  164, 321,
  164, 327,
  164, 328,
  164, 329,
  164, 332,
  164, 333,
  164, 334,
  164, 335,
  164, 336,
  164, 341,
  164, 344,
  164, 346,
  164, 347,
  164, 348,
  164, 349,
  164, 350,
  164, 351,
  164, 352,
  164, 353,
  164, 354,
  164, 356,
  164, 357,
  164, 358,
  164, 359,
  164, 360,
  164, 363,
  164, 369,
  164, 371,
  164, 372,
  164, 373,
  164, 378,
  164, 381,
  164, 384,
  164, 385,
  164, 389,
  164, 390,
  164, 392,
  164, 393,
  164, 394,
  164, 395,
  164, 396,
  164, 397,
  164, 398,
  164, 400,
  165, 166,
  165, 167,
  165, 168,
  165, 178,
  165, 179,
  165, 181,
  165, 183,
  165, 184,
  165, 186,
  165, 187,
  165, 188,
  165, 189,
  165, 193,
  165, 201,
  165, 202,
  165, 204,
  165, 205,
  165, 206,
  165, 207,
  165, 208,
  165, 212,
  165, 213,
  165, 215,
  165, 217,
  165, 219,
  165, 223,
  165, 224,
  165, 225,
  165, 228,
  165, 229,
  165, 231,
  165, 233,
  165, 234,
  165, 237,
  165, 238,
  165, 239,
  165, 240,
  165, 241,
  165, 242,
  165, 243,
  165, 246,
  165, 248,
  165, 254,
  165, 256,
  165, 257,
  165, 262,
  165, 263,
  165, 264,
  165, 266,
  165, 267,
  165, 268,
  165, 272,
  165, 273,
  165, 281,
  165, 282,
  165, 283,
  165, 285,
  165, 286,
  165, 287,
  165, 291,
  165, 292,
  165, 294,
  165, 297,
  165, 300,
  165, 301,
  165, 304,
  165, 310,
  165, 312,
  165, 313,
  165, 316,
  165, 317,
  165, 318,
  165, 319,
  165, 322,
  165, 323,
  165, 324,
  165, 326,
  165, 329,
  165, 334,
  165, 335,
  165, 336,
  165, 341,
  165, 349,
  165, 353,
  165, 354,
  165, 355,
  165, 358,
  165, 359,
  165, 361,
  165, 362,
  165, 364,
  165, 367,
  165, 370,
  165, 374,
  165, 376,
  165, 377,
  165, 379,
  165, 382,
  165, 383,
  165, 386,
  165, 388,
  165, 389,
  165, 390,
  165, 392,
  165, 393,
  165, 395,
  165, 397,
  165, 400,
  166, 167,
  166, 168,
  166, 170,
  166, 171,
  166, 172,
  166, 174,
  166, 175,
  166, 176,
  166, 178,
  166, 180,
  166, 182,
  166, 193,
  166, 194,
  166, 195,
  166, 196,
  166, 200,
  166, 201,
  166, 202,
  166, 203,
  166, 204,
  166, 206,
  166, 207,
  166, 208,
  166, 209,
  166, 212,
  166, 213,
  166, 214,
  166, 215,
  166, 217,
  166, 218,
  166, 219,
  166, 221,
  166, 222,
  166, 224,
  166, 225,
  166, 228,
  166, 229,
  166, 230,
  166, 231,
  166, 232,
  166, 233,
  166, 237,
  166, 238,
  166, 240,
  166, 241,
  166, 243,
  166, 246,
  166, 248,
  166, 249,
  166, 253,
  166, 254,
  166, 256,
  166, 259,
  166, 260,
  166, 261,
  166, 262,
  166, 263,
  166, 264,
  166, 265,
  166, 269,
  166, 270,
  166, 272,
  166, 275,
  166, 282,
  166, 284,
  166, 285,
  166, 286,
  166, 287,
  166, 289,
  166, 293,
  166, 294,
  166, 297,
  166, 298,
  166, 300,
  166, 302,
  166, 303,
  166, 304,
  166, 306,
  166, 309,
  166, 310,
  166, 311,
  166, 312,
  166, 313,
  166, 316,
  166, 318,
  166, 320,
  166, 321,
  166, 322,
  166, 323,
  166, 324,
  166, 325,
  166, 326,
  166, 329,
  166, 331,
  166, 332,
  166, 334,
  166, 340,
  166, 341,
  166, 342,
  166, 346,
  166, 348,
  166, 349,
  166, 356,
  166, 357,
  166, 358,
  166, 360,
  166, 361,
  166, 367,
  166, 372,
  166, 374,
  166, 377,
  166, 378,
  166, 379,
  166, 381,
  166, 384,
  166, 387,
  166, 389,
  166, 394,
  166, 395,
  166, 398,
  166, 399,
  166, 400,
  167, 170,
  167, 171,
  167, 172,
  167, 173,
  167, 174,
  167, 175,
  167, 176,
  167, 177,
  167, 178,
  167, 180,
  167, 181,
  167, 182,
  167, 184,
  167, 185,
  167, 189,
  167, 191,
  167, 194,
  167, 195,
  167, 196,
  167, 200,
  167, 201,
  167, 205,
  167, 206,
  167, 211,
  167, 213,
  167, 214,
  167, 215,
  167, 216,
  167, 218,
  167, 224,
  167, 225,
  167, 227,
  167, 230,
  167, 231,
  167, 234,
  167, 235,
  167, 237,
  167, 239,
  167, 240,
  167, 242,
  167, 243,
  167, 245,
  167, 246,
  167, 247,
  167, 248,
  167, 249,
  167, 251,
  167, 254,
  167, 256,
  167, 261,
  167, 265,
  167, 268,
  167, 272,
  167, 273,
  167, 278,
  167, 279,
  167, 280,
  167, 281,
  167, 285,
  167, 286,
  167, 287,
  167, 292,
  167, 294,
  167, 297,
  167, 299,
  167, 300,
  167, 304,
  167, 305,
  167, 306,
  167, 307,
  167, 308,
  167, 311,
  167, 314,
  167, 315,
  167, 318,
  167, 322,
  167, 329,
  167, 330,
  167, 331,
  167, 332,
  167, 334,
  167, 335,
  167, 337,
  167, 338,
  167, 339,
  167, 340,
  167, 342,
  167, 343,
  167, 345,
  167, 349,
  167, 353,
  167, 355,
  167, 356,
  167, 359,
  167, 361,
  167, 368,
  167, 369,
  167, 370,
  167, 375,
  167, 379,
  167, 382,
  167, 383,
  167, 385,
  167, 387,
  167, 388,
  167, 390,
  167, 394,
  167, 397,
  167, 398,
  167, 399,
  167, 400,
  168, 170,
  168, 171,
  168, 173,
  168, 174,
  168, 181,
  168, 182,
  168, 183,
  168, 184,
  168, 186,
  168, 188,
  168, 189,
  168, 190,
  168, 191,
  168, 192,
  168, 194,
  168, 197,
  168, 198,
  168, 199,
  168, 202,
  168, 203,
  168, 206,
  168, 207,
  168, 208,
  168, 209,
  168, 212,
  168, 213,
  168, 215,
  168, 217,
  168, 219,
  168, 222,
  168, 226,
  168, 228,
  168, 229,
  168, 230,
  168, 231,
  168, 237,
  168, 240,
  168, 242,
  168, 243,
  168, 244,
  168, 248,
  168, 250,
  168, 254,
  168, 258,
  168, 261,
  168, 264,
  168, 267,
  168, 268,
  168, 269,
  168, 270,
  168, 271,
  168, 278,
  168, 279,
  168, 283,
  168, 285,
  168, 286,
  168, 289,
  168, 292,
  168, 295,
  168, 296,
  168, 297,
  168, 298,
  168, 299,
  168, 302,
  168, 303,
  168, 304,
  168, 305,
  168, 306,
  168, 307,
  168, 309,
  168, 310,
  168, 312,
  168, 313,
  168, 314,
  168, 315,
  168, 316,
  168, 317,
  168, 318,
  168, 320,
  168, 322,
  168, 327,
  168, 331,
  168, 332,
  168, 333,
  168, 335,
  168, 336,
  168, 337,
  168, 338,
  168, 339,
  168, 341,
  168, 342,
  168, 343,
  168, 344,
  168, 350,
  168, 351,
  168, 353,
  168, 358,
  168, 359,
  168, 360,
  168, 361,
  168, 363,
  168, 364,
  168, 366,
  168, 367,
  168, 370,
  168, 371,
  168, 372,
  168, 374,
  168, 376,
  168, 377,
  168, 378,
  168, 383,
  168, 386,
  168, 387,
  168, 392,
  168, 393,
  168, 395,
  169, 171,
  169, 174,
  169, 178,
  169, 179,
  169, 182,
  169, 183,
  169, 184,
  169, 185,
  169, 186,
  169, 189,
  169, 190,
  169, 192,
  169, 195,
  169, 199,
  169, 200,
  169, 202,
  169, 207,
  169, 208,
  169, 213,
  169, 214,
  169, 217,
  169, 219,
  169, 222,
  169, 223,
  169, 225,
  169, 226,
  169, 229,
  169, 230,
  169, 232,
  169, 233,
  169, 234,
  169, 235,
  169, 237,
  169, 238,
  169, 239,
  169, 241,
  169, 245,
  169, 247,
  169, 250,
  169, 252,
  169, 253,
  169, 256,
  169, 258,
  169, 259,
  169, 260,
  169, 262,
  169, 263,
  169, 264,
  169, 266,
  169, 267,
  169, 269,
  169, 270,
  169, 271,
  169, 273,
  169, 275,
  169, 276,
  169, 280,
  169, 281,
  169, 285,
  169, 287,
  169, 288,
  169, 289,
  169, 290,
  169, 292,
  169, 293,
  169, 294,
  169, 297,
  169, 299,
  169, 300,
  169, 302,
  169, 303,
  169, 304,
  169, 305,
  169, 306,
  169, 308,
  169, 311,
  169, 312,
  169, 313,
  169, 314,
  169, 316,
  169, 318,
  169, 323,
  169, 325,
  169, 326,
  169, 329,
  169, 330,
  169, 331,
  169, 333,
  169, 336,
  169, 338,
  169, 339,
  169, 342,
  169, 343,
  169, 344,
  169, 347,
  169, 349,
  169, 350,
  169, 355,
  169, 356,
  169, 357,
  169, 358,
  169, 359,
  169, 363,
  169, 364,
  169, 366,
  169, 369,
  169, 370,
  169, 371,
  169, 373,
  169, 374,
  169, 375,
  169, 376,
  169, 380,
  169, 381,
  169, 383,
  169, 385,
  169, 387,
  169, 390,
  169, 392,
  169, 393,
  169, 394,
  169, 395,
  169, 396,
  169, 400,
  170, 172,
  170, 175,
  170, 176,
  170, 179,
  170, 180,
  170, 184,
  170, 185,
  170, 186,
  170, 187,
  170, 191,
  170, 192,
  170, 193,
  170, 194,
  170, 197,
  170, 199,
  170, 201,
  170, 203,
  170, 204,
  170, 206,
  170, 207,
  170, 210,
  170, 211,
  170, 213,
  170, 218,
  170, 220,
  170, 224,
  170, 226,
  170, 227,
  170, 228,
  170, 230,
  170, 231,
  170, 240,
  170, 241,
  170, 242,
  170, 243,
  170, 244,
  170, 247,
  170, 252,
  170, 257,
  170, 259,
  170, 260,
  170, 262,
  170, 263,
  170, 264,
  170, 267,
  170, 269,
  170, 270,
  170, 277,
  170, 279,
  170, 283,
  170, 286,
  170, 288,
  170, 293,
  170, 294,
  170, 297,
  170, 303,
  170, 305,
  170, 311,
  170, 312,
  170, 316,
  170, 319,
  170, 320,
  170, 323,
  170, 326,
  170, 327,
  170, 329,
  170, 330,
  170, 331,
  170, 334,
  170, 335,
  170, 336,
  170, 337,
  170, 338,
  170, 341,
  170, 346,
  170, 347,
  170, 350,
  170, 354,
  170, 357,
  170, 359,
  170, 360,
  170, 363,
  170, 366,
  170, 367,
  170, 368,
  170, 369,
  170, 371,
  170, 376,
  170, 377,
  170, 378,
  170, 380,
  170, 381,
  170, 382,
  170, 383,
  170, 386,
  170, 387,
  170, 389,
  170, 390,
  170, 391,
  170, 395,
  170, 398,
  170, 399,
  171, 175,
  171, 176,
  171, 177,
  171, 178,
  171, 180,
  171, 182,
  171, 183,
  171, 186,
  171, 189,
  171, 193,
  171, 196,
  171, 197,
  171, 198,
  171, 201,
  171, 205,
  171, 206,
  171, 208,
  171, 211,
  171, 214,
  171, 215,
  171, 216,
  171, 218,
  171, 219,
  171, 220,
  171, 222,
  171, 223,
  171, 225,
  171, 227,
  171, 229,
  171, 232,
  171, 235,
  171, 239,
  171, 240,
  171, 241,
  171, 245,
  171, 248,
  171, 250,
  171, 258,
  171, 260,
  171, 262,
  171, 263,
  171, 266,
  171, 267,
  171, 268,
  171, 270,
  171, 272,
  171, 273,
  171, 274,
  171, 275,
  171, 276,
  171, 278,
  171, 281,
  171, 282,
  171, 283,
  171, 287,
  171, 290,
  171, 292,
  171, 295,
  171, 296,
  171, 298,
  171, 299,
  171, 301,
  171, 306,
  171, 307,
  171, 308,
  171, 310,
  171, 311,
  171, 315,
  171, 317,
  171, 319,
  171, 321,
  171, 323,
  171, 327,
  171, 328,
  171, 330,
  171, 331,
  171, 334,
  171, 335,
  171, 338,
  171, 339,
  171, 342,
  171, 343,
  171, 344,
  171, 345,
  171, 346,
  171, 349,
  171, 350,
  171, 351,
  171, 353,
  171, 354,
  171, 355,
  171, 360,
  171, 362,
  171, 363,
  171, 364,
  171, 367,
  171, 368,
  171, 372,
  171, 379,
  171, 380,
  171, 382,
  171, 385,
  171, 388,
  171, 389,
  171, 392,
  171, 393,
  171, 394,
  171, 395,
  172, 173,
  172, 175,
  172, 178,
  172, 180,
  172, 182,
  172, 183,
  172, 186,
  172, 187,
  172, 188,
  172, 190,
  172, 191,
  172, 192,
  172, 193,
  172, 194,
  172, 196,
  172, 197,
  172, 198,
  172, 202,
  172, 203,
  172, 205,
  172, 207,
  172, 209,
  172, 211,
  172, 212,
  172, 215,
  172, 217,
  172, 219,
  172, 221,
  172, 222,
  172, 226,
  172, 238,
  172, 239,
  172, 241,
  172, 242,
  172, 243,
  172, 244,
  172, 245,
  172, 247,
  172, 249,
  172, 250,
  172, 251,
  172, 254,
  172, 255,
  172, 262,
  172, 264,
  172, 266,
  172, 270,
  172, 275,
  172, 276,
  172, 277,
  172, 279,
  172, 281,
  172, 282,
  172, 286,
  172, 287,
  172, 289,
  172, 290,
  172, 291,
  172, 292,
  172, 297,
  172, 298,
  172, 302,
  172, 303,
  172, 304,
  172, 307,
  172, 311,
  172, 313,
  172, 316,
  172, 318,
  172, 323,
  172, 324,
  172, 325,
  172, 327,
  172, 328,
  172, 329,
  172, 331,
  172, 332,
  172, 334,
  172, 336,
  172, 339,
  172, 340,
  172, 344,
  172, 347,
  172, 350,
  172, 351,
  172, 352,
  172, 355,
  172, 359,
  172, 360,
  172, 363,
  172, 364,
  172, 366,
  172, 367,
  172, 368,
  172, 369,
  172, 370,
  172, 371,
  172, 373,
  172, 375,
  172, 376,
  172, 380,
  172, 381,
  172, 382,
  172, 384,
  172, 385,
  172, 386,
  172, 389,
  172, 391,
  172, 392,
  172, 395,
  172, 396,
  172, 397,
  173, 174,
  173, 175,
  173, 176,
  173, 177,
  173, 179,
  173, 181,
  173, 183,
  173, 185,
  173, 186,
  173, 187,
  173, 188,
  173, 190,
  173, 194,
  173, 196,
  173, 198,
  173, 202,
  173, 203,
  173, 205,
  173, 206,
  173, 210,
  173, 211,
  173, 214,
  173, 216,
  173, 217,
  173, 218,
  173, 223,
  173, 225,
  173, 227,
  173, 228,
  173, 229,
  173, 233,
  173, 234,
  173, 239,
  173, 242,
  173, 244,
  173, 245,
  173, 247,
  173, 251,
  173, 252,
  173, 253,
  173, 255,
  173, 257,
  173, 259,
  173, 260,
  173, 261,
  173, 262,
  173, 264,
  173, 266,
  173, 269,
  173, 270,
  173, 272,
  173, 273,
  173, 277,
  173, 278,
  173, 288,
  173, 296,
  173, 297,
  173, 298,
  173, 300,
  173, 302,
  173, 303,
  173, 304,
  173, 305,
  173, 308,
  173, 309,
  173, 312,
  173, 313,
  173, 314,
  173, 319,
  173, 321,
  173, 324,
  173, 325,
  173, 326,
  173, 327,
  173, 328,
  173, 329,
  173, 334,
  173, 335,
  173, 338,
  173, 339,
  173, 345,
  173, 346,
  173, 347,
  173, 350,
  173, 351,
  173, 354,
  173, 355,
  173, 357,
  173, 359,
  173, 361,
  173, 363,
  173, 367,
  173, 368,
  173, 369,
  173, 370,
  173, 372,
  173, 374,
  173, 376,
  173, 377,
  173, 378,
  173, 381,
  173, 382,
  173, 383,
  173, 384,
  173, 387,
  173, 388,
  173, 394,
  173, 396,
  173, 399,
  174, 178,
  174, 181,
  174, 182,
  174, 184,
  174, 188,
  174, 189,
  174, 192,
  174, 193,
  174, 198,
  174, 199,
  174, 200,
  174, 201,
  174, 204,
  174, 209,
  174, 210,
  174, 211,
  174, 215,
  174, 216,
  174, 218,
  174, 220,
  174, 221,
  174, 223,
  174, 225,
  174, 231,
  174, 232,
  174, 235,
  174, 236,
  174, 237,
  174, 240,
  174, 241,
  174, 244,
  174, 245,
  174, 246,
  174, 247,
  174, 249,
  174, 251,
  174, 252,
  174, 254,
  174, 255,
  174, 256,
  174, 257,
  174, 259,
  174, 262,
  174, 263,
  174, 266,
  174, 268,
  174, 269,
  174, 270,
  174, 272,
  174, 273,
  174, 274,
  174, 275,
  174, 276,
  174, 277,
  174, 280,
  174, 283,
  174, 284,
  174, 285,
  174, 286,
  174, 287,
  174, 288,
  174, 289,
  174, 290,
  174, 291,
  174, 293,
  174, 301,
  174, 305,
  174, 306,
  174, 308,
  174, 309,
  174, 312,
  174, 314,
  174, 318,
  174, 320,
  174, 321,
  174, 322,
  174, 324,
  174, 326,
  174, 327,
  174, 331,
  174, 332,
  174, 333,
  174, 335,
  174, 336,
  174, 341,
  174, 342,
  174, 343,
  174, 344,
  174, 345,
  174, 346,
  174, 349,
  174, 350,
  174, 351,
  174, 352,
  174, 353,
  174, 354,
  174, 355,
  174, 358,
  174, 359,
  174, 362,
  174, 366,
  174, 368,
  174, 369,
  174, 370,
  174, 374,
  174, 376,
  174, 378,
  174, 380,
  174, 383,
  174, 385,
  174, 388,
  174, 390,
  174, 391,
  174, 393,
  174, 394,
  174, 395,
  174, 396,
  174, 400,
  175, 178,
  175, 181,
  175, 183,
  175, 184,
  175, 185,
  175, 186,
  175, 188,
  175, 189,
  175, 190,
  175, 195,
  175, 196,
  175, 197,
  175, 200,
  175, 201,
  175, 202,
  175, 204,
  175, 206,
  175, 208,
  175, 212,
  175, 216,
  175, 217,
  175, 220,
  175, 222,
  175, 225,
  175, 228,
  175, 232,
  175, 234,
  175, 235,
  175, 236,
  175, 237,
  175, 240,
  175, 241,
  175, 242,
  175, 243,
  175, 244,
  175, 249,
  175, 252,
  175, 253,
  175, 255,
  175, 257,
  175, 258,
  175, 260,
  175, 261,
  175, 262,
  175, 263,
  175, 264,
  175, 265,
  175, 266,
  175, 269,
  175, 271,
  175, 275,
  175, 276,
  175, 278,
  175, 280,
  175, 281,
  175, 283,
  175, 284,
  175, 292,
  175, 293,
  175, 297,
  175, 298,
  175, 299,
  175, 305,
  175, 307,
  175, 309,
  175, 310,
  175, 312,
  175, 314,
  175, 315,
  175, 319,
  175, 320,
  175, 323,
  175, 324,
  175, 328,
  175, 329,
  175, 330,
  175, 331,
  175, 334,
  175, 337,
  175, 339,
  175, 340,
  175, 341,
  175, 342,
  175, 344,
  175, 345,
  175, 346,
  175, 348,
  175, 349,
  175, 350,
  175, 351,
  175, 352,
  175, 353,
  175, 357,
  175, 359,
  175, 364,
  175, 365,
  175, 366,
  175, 367,
  175, 369,
  175, 370,
  175, 371,
  175, 372,
  175, 376,
  175, 378,
  175, 379,
  175, 380,
  175, 385,
  175, 387,
  175, 388,
  175, 389,
  175, 390,
  175, 392,
  175, 394,
  176, 179,
  176, 180,
  176, 182,
  176, 185,
  176, 188,
  176, 191,
  176, 192,
  176, 193,
  176, 196,
  176, 199,
  176, 200,
  176, 201,
  176, 202,
  176, 204,
  176, 205,
  176, 206,
  176, 210,
  176, 212,
  176, 214,
  176, 219,
  176, 222,
  176, 223,
  176, 226,
  176, 227,
  176, 228,
  176, 232,
  176, 233,
  176, 234,
  176, 237,
  176, 238,
  176, 241,
  176, 245,
  176, 246,
  176, 247,
  176, 248,
  176, 253,
  176, 254,
  176, 256,
  176, 259,
  176, 263,
  176, 264,
  176, 265,
  176, 267,
  176, 268,
  176, 269,
  176, 271,
  176, 272,
  176, 282,
  176, 283,
  176, 284,
  176, 287,
  176, 288,
  176, 290,
  176, 291,
  176, 294,
  176, 296,
  176, 299,
  176, 300,
  176, 306,
  176, 309,
  176, 311,
  176, 313,
  176, 314,
  176, 315,
  176, 316,
  176, 317,
  176, 318,
  176, 319,
  176, 320,
  176, 324,
  176, 326,
  176, 329,
  176, 332,
  176, 333,
  176, 334,
  176, 335,
  176, 336,
  176, 337,
  176, 338,
  176, 339,
  176, 340,
  176, 342,
  176, 343,
  176, 345,
  176, 346,
  176, 347,
  176, 348,
  176, 349,
  176, 350,
  176, 351,
  176, 352,
  176, 354,
  176, 358,
  176, 359,
  176, 362,
  176, 363,
  176, 364,
  176, 365,
  176, 372,
  176, 373,
  176, 378,
  176, 379,
  176, 382,
  176, 385,
  176, 389,
  176, 393,
  176, 394,
  176, 395,
  176, 397,
  176, 398,
  176, 400,
  177, 179,
  177, 181,
  177, 182,
  177, 186,
  177, 189,
  177, 191,
  177, 192,
  177, 193,
  177, 197,
  177, 198,
  177, 206,
  177, 207,
  177, 208,
  177, 209,
  177, 211,
  177, 212,
  177, 214,
  177, 215,
  177, 216,
  177, 217,
  177, 221,
  177, 223,
  177, 225,
  177, 228,
  177, 229,
  177, 231,
  177, 234,
  177, 238,
  177, 239,
  177, 240,
  177, 244,
  177, 245,
  177, 246,
  177, 247,
  177, 248,
  177, 250,
  177, 253,
  177, 257,
  177, 263,
  177, 266,
  177, 268,
  177, 269,
  177, 270,
  177, 271,
  177, 272,
  177, 273,
  177, 274,
  177, 275,
  177, 276,
  177, 278,
  177, 279,
  177, 280,
  177, 281,
  177, 282,
  177, 283,
  177, 286,
  177, 288,
  177, 289,
  177, 292,
  177, 293,
  177, 294,
  177, 297,
  177, 299,
  177, 300,
  177, 304,
  177, 305,
  177, 306,
  177, 308,
  177, 310,
  177, 311,
  177, 313,
  177, 314,
  177, 315,
  177, 318,
  177, 320,
  177, 321,
  177, 323,
  177, 324,
  177, 325,
  177, 326,
  177, 329,
  177, 332,
  177, 334,
  177, 337,
  177, 339,
  177, 340,
  177, 341,
  177, 342,
  177, 343,
  177, 345,
  177, 347,
  177, 352,
  177, 353,
  177, 358,
  177, 360,
  177, 361,
  177, 368,
  177, 370,
  177, 372,
  177, 373,
  177, 375,
  177, 377,
  177, 379,
  177, 380,
  177, 383,
  177, 386,
  177, 387,
  177, 389,
  177, 391,
  177, 394,
  177, 395,
  177, 398,
  177, 399,
  178, 181,
  178, 182,
  178, 183,
  178, 188,
  178, 190,
  178, 191,
  178, 192,
  178, 193,
  178, 196,
  178, 198,
  178, 199,
  178, 204,
  178, 205,
  178, 207,
  178, 209,
  178, 212,
  178, 215,
  178, 216,
  178, 218,
  178, 220,
  178, 221,
  178, 226,
  178, 227,
  178, 230,
  178, 231,
  178, 232,
  178, 233,
  178, 235,
  178, 240,
  178, 242,
  178, 244,
  178, 245,
  178, 246,
  178, 247,
  178, 248,
  178, 250,
  178, 251,
  178, 253,
  178, 254,
  178, 255,
  178, 256,
  178, 259,
  178, 263,
  178, 267,
  178, 268,
  178, 269,
  178, 271,
  178, 272,
  178, 276,
  178, 277,
  178, 280,
  178, 282,
  178, 284,
  178, 285,
  178, 286,
  178, 291,
  178, 292,
  178, 293,
  178, 294,
  178, 295,
  178, 296,
  178, 298,
  178, 302,
  178, 303,
  178, 305,
  178, 306,
  178, 307,
  178, 308,
  178, 309,
  178, 311,
  178, 312,
  178, 313,
  178, 314,
  178, 315,
  178, 316,
  178, 319,
  178, 320,
  178, 321,
  178, 322,
  178, 324,
  178, 327,
  178, 328,
  178, 330,
  178, 337,
  178, 340,
  178, 342,
  178, 344,
  178, 345,
  178, 346,
  178, 349,
  178, 353,
  178, 357,
  178, 358,
  178, 361,
  178, 362,
  178, 364,
  178, 366,
  178, 367,
  178, 368,
  178, 369,
  178, 371,
  178, 373,
  178, 374,
  178, 376,
  178, 379,
  178, 383,
  178, 386,
  178, 387,
  178, 388,
  178, 392,
  178, 393,
  178, 395,
  178, 398,
  178, 399,
  179, 180,
  179, 183,
  179, 185,
  179, 187,
  179, 189,
  179, 190,
  179, 191,
  179, 193,
  179, 197,
  179, 198,
  179, 199,
  179, 200,
  179, 201,
  179, 202,
  179, 203,
  179, 204,
  179, 206,
  179, 207,
  179, 208,
  179, 215,
  179, 216,
  179, 217,
  179, 225,
  179, 227,
  179, 228,
  179, 230,
  179, 232,
  179, 234,
  179, 235,
  179, 236,
  179, 238,
  179, 239,
  179, 240,
  179, 241,
  179, 244,
  179, 249,
  179, 252,
  179, 253,
  179, 255,
  179, 258,
  179, 259,
  179, 261,
  179, 262,
  179, 263,
  179, 267,
  179, 270,
  179, 272,
  179, 273,
  179, 275,
  179, 279,
  179, 285,
  179, 287,
  179, 288,
  179, 291,
  179, 293,
  179, 294,
  179, 295,
  179, 296,
  179, 298,
  179, 300,
  179, 301,
  179, 303,
  179, 307,
  179, 308,
  179, 310,
  179, 311,
  179, 312,
  179, 313,
  179, 318,
  179, 322,
  179, 324,
  179, 326,
  179, 333,
  179, 334,
  179, 335,
  179, 339,
  179, 340,
  179, 342,
  179, 343,
  179, 344,
  179, 346,
  179, 347,
  179, 348,
  179, 353,
  179, 355,
  179, 356,
  179, 357,
  179, 358,
  179, 360,
  179, 361,
  179, 364,
  179, 365,
  179, 368,
  179, 369,
  179, 371,
  179, 372,
  179, 373,
  179, 375,
  179, 377,
  179, 378,
  179, 379,
  179, 380,
  179, 381,
  179, 384,
  179, 385,
  179, 389,
  179, 390,
  179, 396,
  179, 397,
  179, 398,
  179, 399,
  180, 182,
  180, 184,
  180, 187,
  180, 188,
  180, 189,
  180, 190,
  180, 191,
  180, 192,
  180, 196,
  180, 197,
  180, 199,
  180, 200,
  180, 201,
  180, 202,
  180, 203,
  180, 205,
  180, 210,
  180, 211,
  180, 213,
  180, 214,
  180, 215,
  180, 216,
  180, 217,
  180, 220,
  180, 223,
  180, 224,
  180, 227,
  180, 228,
  180, 229,
  180, 233,
  180, 235,
  180, 236,
  180, 237,
  180, 240,
  180, 241,
  180, 242,
  180, 244,
  180, 245,
  180, 248,
  180, 250,
  180, 251,
  180, 252,
  180, 255,
  180, 256,
  180, 257,
  180, 258,
  180, 268,
  180, 269,
  180, 270,
  180, 271,
  180, 272,
  180, 274,
  180, 278,
  180, 279,
  180, 280,
  180, 281,
  180, 282,
  180, 283,
  180, 285,
  180, 288,
  180, 290,
  180, 296,
  180, 297,
  180, 299,
  180, 304,
  180, 305,
  180, 306,
  180, 308,
  180, 309,
  180, 310,
  180, 311,
  180, 313,
  180, 315,
  180, 321,
  180, 324,
  180, 327,
  180, 328,
  180, 330,
  180, 332,
  180, 336,
  180, 338,
  180, 342,
  180, 344,
  180, 345,
  180, 347,
  180, 351,
  180, 352,
  180, 353,
  180, 355,
  180, 356,
  180, 357,
  180, 359,
  180, 360,
  180, 361,
  180, 362,
  180, 363,
  180, 366,
  180, 367,
  180, 370,
  180, 377,
  180, 380,
  180, 383,
  180, 385,
  180, 388,
  180, 389,
  180, 395,
  180, 397,
  180, 399,
  181, 182,
  181, 185,
  181, 186,
  181, 187,
  181, 188,
  181, 190,
  181, 191,
  181, 192,
  181, 193,
  181, 195,
  181, 197,
  181, 199,
  181, 205,
  181, 206,
  181, 209,
  181, 210,
  181, 211,
  181, 214,
  181, 215,
  181, 216,
  181, 219,
  181, 220,
  181, 222,
  181, 226,
  181, 230,
  181, 232,
  181, 233,
  181, 234,
  181, 235,
  181, 238,
  181, 240,
  181, 241,
  181, 242,
  181, 243,
  181, 244,
  181, 245,
  181, 248,
  181, 249,
  181, 251,
  181, 252,
  181, 255,
  181, 257,
  181, 259,
  181, 260,
  181, 261,
  181, 271,
  181, 272,
  181, 274,
  181, 275,
  181, 276,
  181, 277,
  181, 281,
  181, 283,
  181, 284,
  181, 285,
  181, 286,
  181, 287,
  181, 289,
  181, 290,
  181, 294,
  181, 297,
  181, 299,
  181, 300,
  181, 302,
  181, 305,
  181, 306,
  181, 307,
  181, 309,
  181, 310,
  181, 311,
  181, 312,
  181, 316,
  181, 317,
  181, 318,
  181, 319,
  181, 320,
  181, 321,
  181, 322,
  181, 323,
  181, 326,
  181, 327,
  181, 330,
  181, 331,
  181, 336,
  181, 341,
  181, 342,
  181, 345,
  181, 347,
  181, 348,
  181, 352,
  181, 353,
  181, 355,
  181, 357,
  181, 358,
  181, 360,
  181, 362,
  181, 365,
  181, 366,
  181, 367,
  181, 368,
  181, 372,
  181, 376,
  181, 377,
  181, 379,
  181, 383,
  181, 384,
  181, 388,
  181, 390,
  181, 391,
  181, 392,
  181, 394,
  181, 395,
  181, 396,
  181, 397,
  182, 183,
  182, 184,
  182, 186,
  182, 188,
  182, 189,
  182, 190,
  182, 191,
  182, 192,
  182, 194,
  182, 196,
  182, 197,
  182, 200,
  182, 201,
  182, 203,
  182, 204,
  182, 208,
  182, 209,
  182, 215,
  182, 217,
  182, 218,
  182, 219,
  182, 220,
  182, 221,
  182, 223,
  182, 224,
  182, 225,
  182, 226,
  182, 228,
  182, 230,
  182, 231,
  182, 232,
  182, 237,
  182, 238,
  182, 240,
  182, 242,
  182, 245,
  182, 246,
  182, 247,
  182, 248,
  182, 251,
  182, 253,
  182, 255,
  182, 256,
  182, 257,
  182, 259,
  182, 262,
  182, 265,
  182, 266,
  182, 268,
  182, 269,
  182, 272,
  182, 277,
  182, 279,
  182, 280,
  182, 281,
  182, 282,
  182, 283,
  182, 284,
  182, 285,
  182, 290,
  182, 291,
  182, 296,
  182, 297,
  182, 299,
  182, 303,
  182, 304,
  182, 305,
  182, 306,
  182, 307,
  182, 310,
  182, 311,
  182, 312,
  182, 319,
  182, 322,
  182, 326,
  182, 327,
  182, 328,
  182, 330,
  182, 331,
  182, 333,
  182, 335,
  182, 339,
  182, 340,
  182, 342,
  182, 345,
  182, 347,
  182, 348,
  182, 349,
  182, 350,
  182, 351,
  182, 352,
  182, 356,
  182, 357,
  182, 358,
  182, 361,
  182, 362,
  182, 363,
  182, 366,
  182, 367,
  182, 372,
  182, 375,
  182, 376,
  182, 380,
  182, 383,
  182, 385,
  182, 389,
  182, 392,
  182, 394,
  182, 395,
  182, 397,
  182, 398,
  182, 400,
  183, 187,
  183, 188,
  183, 190,
  183, 193,
  183, 197,
  183, 198,
  183, 199,
  183, 202,
  183, 205,
  183, 206,
  183, 208,
  183, 210,
  183, 211,
  183, 215,
  183, 216,
  183, 217,
  183, 218,
  183, 221,
  183, 222,
  183, 223,
  183, 224,
  183, 225,
  183, 226,
  183, 227,
  183, 228,
  183, 230,
  183, 234,
  183, 235,
  183, 236,
  183, 238,
  183, 241,
  183, 242,
  183, 245,
  183, 246,
  183, 247,
  183, 254,
  183, 256,
  183, 257,
  183, 258,
  183, 259,
  183, 260,
  183, 261,
  183, 264,
  183, 265,
  183, 268,
  183, 274,
  183, 276,
  183, 277,
  183, 278,
  183, 280,
  183, 281,
  183, 283,
  183, 284,
  183, 287,
  183, 290,
  183, 291,
  183, 292,
  183, 295,
  183, 297,
  183, 300,
  183, 301,
  183, 305,
  183, 306,
  183, 309,
  183, 310,
  183, 311,
  183, 312,
  183, 313,
  183, 316,
  183, 318,
  183, 323,
  183, 324,
  183, 325,
  183, 327,
  183, 329,
  183, 331,
  183, 332,
  183, 333,
  183, 337,
  183, 339,
  183, 340,
  183, 341,
  183, 342,
  183, 343,
  183, 344,
  183, 345,
  183, 346,
  183, 347,
  183, 350,
  183, 352,
  183, 353,
  183, 357,
  183, 358,
  183, 359,
  183, 361,
  183, 363,
  183, 366,
  183, 367,
  183, 368,
  183, 369,
  183, 370,
  183, 373,
  183, 374,
  183, 375,
  183, 376,
  183, 377,
  183, 379,
  183, 381,
  183, 383,
  183, 384,
  183, 385,
  183, 386,
  183, 387,
  183, 388,
  183, 392,
  183, 394,
  183, 396,
  183, 400,
  184, 187,
  184, 189,
  184, 190,
  184, 191,
  184, 192,
  184, 194,
  184, 195,
  184, 199,
  184, 200,
  184, 201,
  184, 203,
  184, 204,
  184, 207,
  184, 210,
  184, 212,
  184, 214,
  184, 215,
  184, 216,
  184, 218,
  184, 219,
  184, 220,
  184, 221,
  184, 224,
  184, 226,
  184, 227,
  184, 231,
  184, 232,
  184, 234,
  184, 235,
  184, 237,
  184, 239,
  184, 240,
  184, 241,
  184, 242,
  184, 245,
  184, 248,
  184, 249,
  184, 258,
  184, 259,
  184, 260,
  184, 261,
  184, 262,
  184, 265,
  184, 266,
  184, 268,
  184, 269,
  184, 270,
  184, 273,
  184, 276,
  184, 277,
  184, 279,
  184, 281,
  184, 283,
  184, 284,
  184, 290,
  184, 291,
  184, 292,
  184, 293,
  184, 295,
  184, 297,
  184, 298,
  184, 299,
  184, 300,
  184, 301,
  184, 306,
  184, 307,
  184, 308,
  184, 309,
  184, 311,
  184, 313,
  184, 318,
  184, 319,
  184, 322,
  184, 324,
  184, 327,
  184, 329,
  184, 331,
  184, 333,
  184, 337,
  184, 338,
  184, 342,
  184, 343,
  184, 345,
  184, 346,
  184, 348,
  184, 349,
  184, 350,
  184, 352,
  184, 353,
  184, 354,
  184, 356,
  184, 357,
  184, 359,
  184, 360,
  184, 362,
  184, 365,
  184, 371,
  184, 374,
  184, 375,
  184, 376,
  184, 377,
  184, 378,
  184, 379,
  184, 380,
  184, 384,
  184, 389,
  184, 390,
  184, 391,
  184, 392,
  184, 394,
  184, 396,
  184, 398,
  184, 399,
  185, 187,
  185, 193,
  185, 195,
  185, 196,
  185, 200,
  185, 204,
  185, 205,
  185, 209,
  185, 212,
  185, 213,
  185, 217,
  185, 221,
  185, 223,
  185, 226,
  185, 228,
  185, 232,
  185, 235,
  185, 237,
  185, 238,
  185, 240,
  185, 241,
  185, 242,
  185, 244,
  185, 245,
  185, 246,
  185, 249,
  185, 250,
  185, 251,
  185, 252,
  185, 254,
  185, 258,
  185, 259,
  185, 260,
  185, 263,
  185, 264,
  185, 265,
  185, 266,
  185, 267,
  185, 269,
  185, 271,
  185, 272,
  185, 273,
  185, 277,
  185, 279,
  185, 281,
  185, 282,
  185, 285,
  185, 286,
  185, 288,
  185, 289,
  185, 291,
  185, 295,
  185, 296,
  185, 297,
  185, 299,
  185, 300,
  185, 302,
  185, 303,
  185, 304,
  185, 305,
  185, 308,
  185, 311,
  185, 313,
  185, 314,
  185, 315,
  185, 318,
  185, 320,
  185, 321,
  185, 322,
  185, 323,
  185, 324,
  185, 326,
  185, 329,
  185, 331,
  185, 339,
  185, 340,
  185, 343,
  185, 344,
  185, 347,
  185, 350,
  185, 351,
  185, 353,
  185, 354,
  185, 355,
  185, 357,
  185, 358,
  185, 359,
  185, 361,
  185, 362,
  185, 363,
  185, 369,
  185, 370,
  185, 372,
  185, 373,
  185, 377,
  185, 378,
  185, 379,
  185, 381,
  185, 387,
  185, 390,
  185, 391,
  185, 393,
  185, 396,
  185, 398,
  185, 400,
  186, 187,
  186, 189,
  186, 191,
  186, 193,
  186, 195,
  186, 197,
  186, 198,
  186, 199,
  186, 201,
  186, 202,
  186, 209,
  186, 211,
  186, 213,
  186, 216,
  186, 218,
  186, 219,
  186, 224,
  186, 225,
  186, 228,
  186, 230,
  186, 231,
  186, 232,
  186, 234,
  186, 238,
  186, 239,
  186, 241,
  186, 243,
  186, 244,
  186, 247,
  186, 249,
  186, 252,
  186, 253,
  186, 255,
  186, 256,
  186, 260,
  186, 263,
  186, 265,
  186, 266,
  186, 271,
  186, 276,
  186, 279,
  186, 280,
  186, 281,
  186, 284,
  186, 285,
  186, 287,
  186, 288,
  186, 289,
  186, 291,
  186, 293,
  186, 294,
  186, 295,
  186, 296,
  186, 298,
  186, 299,
  186, 300,
  186, 302,
  186, 304,
  186, 305,
  186, 306,
  186, 309,
  186, 312,
  186, 317,
  186, 319,
  186, 320,
  186, 325,
  186, 330,
  186, 331,
  186, 332,
  186, 333,
  186, 334,
  186, 336,
  186, 337,
  186, 339,
  186, 340,
  186, 342,
  186, 343,
  186, 345,
  186, 346,
  186, 347,
  186, 348,
  186, 349,
  186, 350,
  186, 352,
  186, 353,
  186, 355,
  186, 356,
  186, 357,
  186, 360,
  186, 361,
  186, 363,
  186, 368,
  186, 369,
  186, 370,
  186, 372,
  186, 373,
  186, 374,
  186, 375,
  186, 376,
  186, 377,
  186, 381,
  186, 385,
  186, 386,
  186, 388,
  186, 392,
  186, 393,
  186, 394,
  186, 395,
  186, 396,
  186, 398,
  186, 399,
  186, 400,
  187, 189,
  187, 191,
  187, 192,
  187, 195,
  187, 196,
  187, 198,
  187, 206,
  187, 207,
  187, 209,
  187, 213,
  187, 214,
  187, 215,
  187, 216,
  187, 220,
  187, 224,
  187, 225,
  187, 228,
  187, 229,
  187, 230,
  187, 231,
  187, 234,
  187, 241,
  187, 242,
  187, 243,
  187, 244,
  187, 245,
  187, 246,
  187, 247,
  187, 248,
  187, 250,
  187, 253,
  187, 254,
  187, 256,
  187, 257,
  187, 261,
  187, 265,
  187, 266,
  187, 268,
  187, 269,
  187, 272,
  187, 273,
  187, 275,
  187, 278,
  187, 283,
  187, 286,
  187, 287,
  187, 288,
  187, 289,
  187, 292,
  187, 296,
  187, 297,
  187, 298,
  187, 300,
  187, 301,
  187, 302,
  187, 304,
  187, 305,
  187, 306,
  187, 309,
  187, 315,
  187, 317,
  187, 319,
  187, 320,
  187, 325,
  187, 327,
  187, 329,
  187, 330,
  187, 331,
  187, 332,
  187, 335,
  187, 336,
  187, 338,
  187, 342,
  187, 344,
  187, 347,
  187, 348,
  187, 350,
  187, 351,
  187, 353,
  187, 355,
  187, 358,
  187, 359,
  187, 363,
  187, 364,
  187, 365,
  187, 366,
  187, 367,
  187, 368,
  187, 369,
  187, 374,
  187, 377,
  187, 379,
  187, 381,
  187, 382,
  187, 383,
  187, 384,
  187, 385,
  187, 386,
  187, 391,
  187, 393,
  187, 396,
  187, 397,
  187, 400,
  188, 195,
  188, 198,
  188, 199,
  188, 201,
  188, 203,
  188, 204,
  188, 207,
  188, 208,
  188, 209,
  188, 213,
  188, 214,
  188, 219,
  188, 220,
  188, 221,
  188, 224,
  188, 226,
  188, 228,
  188, 229,
  188, 230,
  188, 231,
  188, 237,
  188, 242,
  188, 243,
  188, 245,
  188, 251,
  188, 252,
  188, 255,
  188, 257,
  188, 258,
  188, 260,
  188, 262,
  188, 264,
  188, 265,
  188, 268,
  188, 270,
  188, 272,
  188, 273,
  188, 277,
  188, 278,
  188, 281,
  188, 283,
  188, 284,
  188, 286,
  188, 288,
  188, 289,
  188, 290,
  188, 292,
  188, 294,
  188, 295,
  188, 296,
  188, 299,
  188, 301,
  188, 302,
  188, 304,
  188, 306,
  188, 307,
  188, 311,
  188, 315,
  188, 322,
  188, 326,
  188, 327,
  188, 328,
  188, 330,
  188, 331,
  188, 332,
  188, 333,
  188, 335,
  188, 336,
  188, 339,
  188, 340,
  188, 344,
  188, 345,
  188, 349,
  188, 350,
  188, 351,
  188, 352,
  188, 353,
  188, 356,
  188, 357,
  188, 358,
  188, 361,
  188, 362,
  188, 363,
  188, 366,
  188, 369,
  188, 372,
  188, 374,
  188, 375,
  188, 376,
  188, 378,
  188, 380,
  188, 381,
  188, 387,
  188, 388,
  188, 389,
  188, 390,
  188, 394,
  188, 397,
  188, 398,
  188, 400,
  189, 190,
  189, 194,
  189, 195,
  189, 197,
  189, 200,
  189, 206,
  189, 208,
  189, 209,
  189, 210,
  189, 214,
  189, 216,
  189, 217,
  189, 220,
  189, 222,
  189, 224,
  189, 225,
  189, 226,
  189, 227,
  189, 229,
  189, 237,
  189, 238,
  189, 239,
  189, 240,
  189, 241,
  189, 243,
  189, 247,
  189, 249,
  189, 250,
  189, 251,
  189, 253,
  189, 256,
  189, 257,
  189, 260,
  189, 263,
  189, 264,
  189, 268,
  189, 270,
  189, 271,
  189, 273,
  189, 274,
  189, 275,
  189, 277,
  189, 278,
  189, 279,
  189, 283,
  189, 285,
  189, 287,
  189, 288,
  189, 289,
  189, 291,
  189, 292,
  189, 295,
  189, 297,
  189, 299,
  189, 302,
  189, 304,
  189, 306,
  189, 308,
  189, 310,
  189, 311,
  189, 312,
  189, 313,
  189, 314,
  189, 316,
  189, 317,
  189, 318,
  189, 320,
  189, 322,
  189, 323,
  189, 324,
  189, 325,
  189, 327,
  189, 331,
  189, 332,
  189, 333,
  189, 336,
  189, 337,
  189, 339,
  189, 341,
  189, 343,
  189, 344,
  189, 346,
  189, 347,
  189, 350,
  189, 352,
  189, 354,
  189, 357,
  189, 358,
  189, 361,
  189, 367,
  189, 368,
  189, 369,
  189, 370,
  189, 371,
  189, 374,
  189, 375,
  189, 377,
  189, 382,
  189, 384,
  189, 385,
  189, 388,
  189, 389,
  189, 391,
  189, 394,
  189, 397,
  189, 398,
  189, 400,
  190, 192,
  190, 194,
  190, 195,
  190, 196,
  190, 197,
  190, 199,
  190, 201,
  190, 204,
  190, 205,
  190, 208,
  190, 209,
  190, 211,
  190, 213,
  190, 214,
  190, 216,
  190, 217,
  190, 218,
  190, 219,
  190, 221,
  190, 222,
  190, 224,
  190, 225,
  190, 226,
  190, 227,
  190, 229,
  190, 231,
  190, 233,
  190, 235,
  190, 236,
  190, 238,
  190, 239,
  190, 240,
  190, 243,
  190, 244,
  190, 246,
  190, 247,
  190, 249,
  190, 251,
  190, 252,
  190, 256,
  190, 259,
  190, 260,
  190, 262,
  190, 263,
  190, 267,
  190, 271,
  190, 276,
  190, 280,
  190, 281,
  190, 282,
  190, 284,
  190, 285,
  190, 286,
  190, 290,
  190, 291,
  190, 293,
  190, 294,
  190, 296,
  190, 297,
  190, 300,
  190, 303,
  190, 304,
  190, 307,
  190, 309,
  190, 310,
  190, 315,
  190, 316,
  190, 317,
  190, 318,
  190, 319,
  190, 320,
  190, 324,
  190, 325,
  190, 326,
  190, 327,
  190, 336,
  190, 337,
  190, 339,
  190, 342,
  190, 343,
  190, 345,
  190, 346,
  190, 347,
  190, 348,
  190, 349,
  190, 352,
  190, 353,
  190, 356,
  190, 359,
  190, 361,
  190, 362,
  190, 363,
  190, 366,
  190, 368,
  190, 369,
  190, 370,
  190, 371,
  190, 373,
  190, 379,
  190, 380,
  190, 381,
  190, 383,
  190, 385,
  190, 389,
  190, 390,
  190, 392,
  190, 394,
  190, 398,
  190, 400,
  191, 195,
  191, 197,
  191, 198,
  191, 200,
  191, 203,
  191, 204,
  191, 206,
  191, 215,
  191, 216,
  191, 217,
  191, 222,
  191, 223,
  191, 224,
  191, 227,
  191, 230,
  191, 234,
  191, 237,
  191, 238,
  191, 241,
  191, 242,
  191, 244,
  191, 245,
  191, 247,
  191, 251,
  191, 252,
  191, 256,
  191, 257,
  191, 259,
  191, 263,
  191, 269,
  191, 270,
  191, 272,
  191, 275,
  191, 279,
  191, 280,
  191, 283,
  191, 284,
  191, 285,
  191, 287,
  191, 288,
  191, 289,
  191, 290,
  191, 292,
  191, 294,
  191, 302,
  191, 303,
  191, 305,
  191, 306,
  191, 308,
  191, 309,
  191, 315,
  191, 321,
  191, 322,
  191, 326,
  191, 328,
  191, 329,
  191, 330,
  191, 332,
  191, 337,
  191, 342,
  191, 345,
  191, 349,
  191, 350,
  191, 353,
  191, 354,
  191, 357,
  191, 359,
  191, 364,
  191, 370,
  191, 372,
  191, 376,
  191, 377,
  191, 379,
  191, 382,
  191, 383,
  191, 384,
  191, 387,
  191, 389,
  191, 390,
  191, 392,
  191, 393,
  191, 394,
  191, 398,
  191, 399,
  192, 193,
  192, 196,
  192, 202,
  192, 204,
  192, 205,
  192, 208,
  192, 209,
  192, 210,
  192, 213,
  192, 214,
  192, 215,
  192, 216,
  192, 217,
  192, 218,
  192, 219,
  192, 222,
  192, 225,
  192, 227,
  192, 228,
  192, 229,
  192, 231,
  192, 232,
  192, 233,
  192, 234,
  192, 236,
  192, 237,
  192, 238,
  192, 239,
  192, 241,
  192, 242,
  192, 243,
  192, 244,
  192, 245,
  192, 246,
  192, 247,
  192, 248,
  192, 250,
  192, 252,
  192, 253,
  192, 254,
  192, 255,
  192, 257,
  192, 259,
  192, 260,
  192, 261,
  192, 262,
  192, 264,
  192, 269,
  192, 270,
  192, 272,
  192, 273,
  192, 276,
  192, 283,
  192, 284,
  192, 285,
  192, 286,
  192, 288,
  192, 293,
  192, 294,
  192, 295,
  192, 296,
  192, 298,
  192, 299,
  192, 300,
  192, 301,
  192, 303,
  192, 304,
  192, 308,
  192, 310,
  192, 314,
  192, 315,
  192, 317,
  192, 318,
  192, 321,
  192, 322,
  192, 323,
  192, 324,
  192, 325,
  192, 326,
  192, 327,
  192, 332,
  192, 334,
  192, 338,
  192, 340,
  192, 342,
  192, 344,
  192, 347,
  192, 348,
  192, 349,
  192, 350,
  192, 351,
  192, 354,
  192, 355,
  192, 356,
  192, 357,
  192, 359,
  192, 361,
  192, 362,
  192, 364,
  192, 365,
  192, 367,
  192, 369,
  192, 372,
  192, 375,
  192, 376,
  192, 377,
  192, 378,
  192, 384,
  192, 386,
  192, 388,
  192, 390,
  192, 392,
  192, 393,
  192, 394,
  192, 395,
  193, 195,
  193, 197,
  193, 201,
  193, 203,
  193, 205,
  193, 207,
  193, 208,
  193, 210,
  193, 211,
  193, 212,
  193, 219,
  193, 221,
  193, 222,
  193, 223,
  193, 225,
  193, 229,
  193, 232,
  193, 234,
  193, 236,
  193, 237,
  193, 240,
  193, 244,
  193, 247,
  193, 248,
  193, 250,
  193, 252,
  193, 254,
  193, 255,
  193, 257,
  193, 259,
  193, 260,
  193, 261,
  193, 264,
  193, 267,
  193, 268,
  193, 271,
  193, 276,
  193, 277,
  193, 278,
  193, 280,
  193, 282,
  193, 283,
  193, 285,
  193, 286,
  193, 287,
  193, 288,
  193, 289,
  193, 291,
  193, 292,
  193, 296,
  193, 297,
  193, 299,
  193, 301,
  193, 302,
  193, 303,
  193, 304,
  193, 306,
  193, 307,
  193, 308,
  193, 309,
  193, 310,
  193, 311,
  193, 312,
  193, 313,
  193, 314,
  193, 316,
  193, 317,
  193, 318,
  193, 321,
  193, 323,
  193, 325,
  193, 327,
  193, 331,
  193, 332,
  193, 333,
  193, 335,
  193, 339,
  193, 342,
  193, 343,
  193, 348,
  193, 349,
  193, 352,
  193, 353,
  193, 354,
  193, 361,
  193, 363,
  193, 365,
  193, 367,
  193, 368,
  193, 369,
  193, 370,
  193, 371,
  193, 372,
  193, 374,
  193, 375,
  193, 376,
  193, 377,
  193, 379,
  193, 380,
  193, 384,
  193, 387,
  193, 390,
  193, 392,
  193, 393,
  193, 394,
  193, 398,
  194, 195,
  194, 197,
  194, 199,
  194, 204,
  194, 206,
  194, 209,
  194, 210,
  194, 212,
  194, 216,
  194, 217,
  194, 218,
  194, 220,
  194, 233,
  194, 234,
  194, 236,
  194, 237,
  194, 238,
  194, 239,
  194, 240,
  194, 241,
  194, 242,
  194, 243,
  194, 245,
  194, 246,
  194, 247,
  194, 248,
  194, 249,
  194, 250,
  194, 252,
  194, 253,
  194, 259,
  194, 261,
  194, 262,
  194, 263,
  194, 264,
  194, 265,
  194, 267,
  194, 270,
  194, 273,
  194, 275,
  194, 278,
  194, 279,
  194, 284,
  194, 285,
  194, 286,
  194, 288,
  194, 290,
  194, 293,
  194, 294,
  194, 295,
  194, 296,
  194, 297,
  194, 299,
  194, 301,
  194, 302,
  194, 303,
  194, 304,
  194, 306,
  194, 307,
  194, 313,
  194, 314,
  194, 316,
  194, 317,
  194, 321,
  194, 322,
  194, 324,
  194, 326,
  194, 327,
  194, 328,
  194, 332,
  194, 334,
  194, 335,
  194, 336,
  194, 337,
  194, 340,
  194, 341,
  194, 343,
  194, 348,
  194, 349,
  194, 350,
  194, 351,
  194, 353,
  194, 356,
  194, 358,
  194, 362,
  194, 364,
  194, 366,
  194, 367,
  194, 368,
  194, 371,
  194, 375,
  194, 377,
  194, 378,
  194, 382,
  194, 386,
  194, 387,
  194, 391,
  194, 394,
  194, 396,
  194, 398,
  194, 399,
  194, 400,
  195, 197,
  195, 198,
  195, 199,
  195, 202,
  195, 203,
  195, 207,
  195, 210,
  195, 212,
  195, 214,
  195, 215,
  195, 217,
  195, 218,
  195, 219,
  195, 220,
  195, 222,
  195, 223,
  195, 224,
  195, 225,
  195, 227,
  195, 229,
  195, 230,
  195, 231,
  195, 232,
  195, 237,
  195, 238,
  195, 239,
  195, 243,
  195, 244,
  195, 245,
  195, 246,
  195, 248,
  195, 251,
  195, 253,
  195, 255,
  195, 257,
  195, 260,
  195, 261,
  195, 263,
  195, 264,
  195, 269,
  195, 270,
  195, 271,
  195, 272,
  195, 273,
  195, 276,
  195, 278,
  195, 280,
  195, 281,
  195, 283,
  195, 286,
  195, 287,
  195, 288,
  195, 289,
  195, 291,
  195, 294,
  195, 296,
  195, 297,
  195, 303,
  195, 305,
  195, 309,
  195, 310,
  195, 311,
  195, 313,
  195, 314,
  195, 317,
  195, 318,
  195, 320,
  195, 323,
  195, 324,
  195, 328,
  195, 329,
  195, 330,
  195, 332,
  195, 334,
  195, 335,
  195, 337,
  195, 338,
  195, 339,
  195, 340,
  195, 341,
  195, 343,
  195, 344,
  195, 345,
  195, 346,
  195, 347,
  195, 348,
  195, 349,
  195, 352,
  195, 353,
  195, 354,
  195, 355,
  195, 356,
  195, 357,
  195, 361,
  195, 362,
  195, 363,
  195, 366,
  195, 368,
  195, 371,
  195, 372,
  195, 374,
  195, 376,
  195, 379,
  195, 380,
  195, 381,
  195, 382,
  195, 383,
  195, 384,
  195, 386,
  195, 387,
  195, 389,
  195, 391,
  195, 392,
  195, 393,
  195, 395,
  195, 396,
  195, 400,
  196, 198,
  196, 201,
  196, 205,
  196, 206,
  196, 207,
  196, 208,
  196, 210,
  196, 214,
  196, 215,
  196, 216,
  196, 217,
  196, 218,
  196, 220,
  196, 222,
  196, 223,
  196, 225,
  196, 226,
  196, 227,
  196, 228,
  196, 231,
  196, 232,
  196, 233,
  196, 237,
  196, 238,
  196, 240,
  196, 241,
  196, 242,
  196, 243,
  196, 247,
  196, 248,
  196, 249,
  196, 250,
  196, 252,
  196, 253,
  196, 254,
  196, 256,
  196, 257,
  196, 258,
  196, 260,
  196, 261,
  196, 265,
  196, 266,
  196, 267,
  196, 269,
  196, 271,
  196, 272,
  196, 275,
  196, 276,
  196, 277,
  196, 278,
  196, 281,
  196, 282,
  196, 283,
  196, 286,
  196, 288,
  196, 293,
  196, 295,
  196, 298,
  196, 299,
  196, 301,
  196, 306,
  196, 309,
  196, 310,
  196, 313,
  196, 314,
  196, 315,
  196, 316,
  196, 319,
  196, 320,
  196, 324,
  196, 326,
  196, 328,
  196, 330,
  196, 331,
  196, 334,
  196, 335,
  196, 338,
  196, 340,
  196, 341,
  196, 348,
  196, 350,
  196, 352,
  196, 353,
  196, 354,
  196, 357,
  196, 358,
  196, 359,
  196, 362,
  196, 367,
  196, 368,
  196, 370,
  196, 371,
  196, 372,
  196, 373,
  196, 374,
  196, 376,
  196, 377,
  196, 378,
  196, 380,
  196, 381,
  196, 382,
  196, 384,
  196, 385,
  196, 389,
  196, 392,
  196, 396,
  196, 400,
  197, 203,
  197, 205,
  197, 210,
  197, 211,
  197, 212,
  197, 214,
  197, 216,
  197, 217,
  197, 218,
  197, 219,
  197, 221,
  197, 223,
  197, 226,
  197, 227,
  197, 229,
  197, 232,
  197, 235,
  197, 237,
  197, 242,
  197, 243,
  197, 244,
  197, 246,
  197, 247,
  197, 251,
  197, 256,
  197, 261,
  197, 263,
  197, 265,
  197, 268,
  197, 269,
  197, 271,
  197, 273,
  197, 274,
  197, 275,
  197, 276,
  197, 277,
  197, 278,
  197, 282,
  197, 283,
  197, 284,
  197, 285,
  197, 286,
  197, 289,
  197, 290,
  197, 291,
  197, 294,
  197, 295,
  197, 296,
  197, 299,
  197, 302,
  197, 304,
  197, 306,
  197, 308,
  197, 310,
  197, 312,
  197, 317,
  197, 318,
  197, 319,
  197, 320,
  197, 322,
  197, 323,
  197, 325,
  197, 326,
  197, 327,
  197, 331,
  197, 333,
  197, 335,
  197, 338,
  197, 339,
  197, 341,
  197, 342,
  197, 346,
  197, 347,
  197, 350,
  197, 351,
  197, 352,
  197, 354,
  197, 356,
  197, 357,
  197, 360,
  197, 361,
  197, 362,
  197, 363,
  197, 364,
  197, 368,
  197, 369,
  197, 375,
  197, 376,
  197, 377,
  197, 379,
  197, 380,
  197, 381,
  197, 382,
  197, 383,
  197, 384,
  197, 390,
  197, 391,
  197, 395,
  197, 396,
  197, 399,
  198, 200,
  198, 203,
  198, 204,
  198, 206,
  198, 210,
  198, 213,
  198, 217,
  198, 218,
  198, 220,
  198, 223,
  198, 227,
  198, 228,
  198, 231,
  198, 232,
  198, 233,
  198, 235,
  198, 236,
  198, 238,
  198, 239,
  198, 241,
  198, 242,
  198, 244,
  198, 245,
  198, 248,
  198, 249,
  198, 250,
  198, 251,
  198, 252,
  198, 256,
  198, 257,
  198, 259,
  198, 260,
  198, 261,
  198, 270,
  198, 271,
  198, 273,
  198, 278,
  198, 280,
  198, 281,
  198, 282,
  198, 284,
  198, 285,
  198, 286,
  198, 287,
  198, 294,
  198, 296,
  198, 297,
  198, 298,
  198, 299,
  198, 300,
  198, 308,
  198, 309,
  198, 312,
  198, 316,
  198, 318,
  198, 321,
  198, 324,
  198, 325,
  198, 327,
  198, 328,
  198, 335,
  198, 337,
  198, 339,
  198, 341,
  198, 342,
  198, 345,
  198, 346,
  198, 347,
  198, 349,
  198, 350,
  198, 351,
  198, 352,
  198, 354,
  198, 355,
  198, 356,
  198, 357,
  198, 358,
  198, 359,
  198, 360,
  198, 361,
  198, 363,
  198, 364,
  198, 367,
  198, 368,
  198, 370,
  198, 371,
  198, 372,
  198, 374,
  198, 375,
  198, 377,
  198, 378,
  198, 379,
  198, 382,
  198, 385,
  198, 386,
  198, 388,
  198, 389,
  198, 390,
  198, 391,
  198, 393,
  198, 394,
  198, 397,
  198, 400,
  199, 201,
  199, 202,
  199, 203,
  199, 208,
  199, 209,
  199, 211,
  199, 213,
  199, 215,
  199, 218,
  199, 221,
  199, 222,
  199, 223,
  199, 226,
  199, 230,
  199, 231,
  199, 232,
  199, 234,
  199, 236,
  199, 238,
  199, 240,
  199, 242,
  199, 243,
  199, 246,
  199, 247,
  199, 248,
  199, 249,
  199, 250,
  199, 252,
  199, 254,
  199, 256,
  199, 259,
  199, 262,
  199, 263,
  199, 264,
  199, 265,
  199, 268,
  199, 269,
  199, 272,
  199, 273,
  199, 275,
  199, 277,
  199, 278,
  199, 280,
  199, 281,
  199, 283,
  199, 285,
  199, 286,
  199, 288,
  199, 295,
  199, 299,
  199, 301,
  199, 303,
  199, 304,
  199, 306,
  199, 307,
  199, 311,
  199, 313,
  199, 315,
  199, 321,
  199, 322,
  199, 323,
  199, 324,
  199, 325,
  199, 326,
  199, 328,
  199, 330,
  199, 331,
  199, 332,
  199, 333,
  199, 334,
  199, 337,
  199, 340,
  199, 345,
  199, 348,
  199, 349,
  199, 350,
  199, 351,
  199, 352,
  199, 353,
  199, 355,
  199, 358,
  199, 359,
  199, 362,
  199, 363,
  199, 364,
  199, 366,
  199, 367,
  199, 369,
  199, 370,
  199, 374,
  199, 377,
  199, 378,
  199, 379,
  199, 381,
  199, 384,
  199, 385,
  199, 387,
  199, 388,
  199, 391,
  199, 395,
  199, 396,
  199, 397,
  200, 202,
  200, 205,
  200, 207,
  200, 210,
  200, 211,
  200, 212,
  200, 215,
  200, 216,
  200, 219,
  200, 220,
  200, 223,
  200, 227,
  200, 228,
  200, 230,
  200, 231,
  200, 237,
  200, 239,
  200, 240,
  200, 242,
  200, 243,
  200, 247,
  200, 250,
  200, 251,
  200, 254,
  200, 256,
  200, 261,
  200, 262,
  200, 263,
  200, 264,
  200, 265,
  200, 269,
  200, 271,
  200, 272,
  200, 275,
  200, 280,
  200, 282,
  200, 284,
  200, 286,
  200, 288,
  200, 289,
  200, 290,
  200, 291,
  200, 293,
  200, 295,
  200, 296,
  200, 299,
  200, 300,
  200, 302,
  200, 303,
  200, 304,
  200, 308,
  200, 309,
  200, 312,
  200, 315,
  200, 317,
  200, 318,
  200, 320,
  200, 323,
  200, 324,
  200, 325,
  200, 326,
  200, 327,
  200, 328,
  200, 329,
  200, 330,
  200, 332,
  200, 333,
  200, 334,
  200, 338,
  200, 340,
  200, 341,
  200, 342,
  200, 343,
  200, 345,
  200, 347,
  200, 348,
  200, 349,
  200, 350,
  200, 354,
  200, 357,
  200, 358,
  200, 359,
  200, 360,
  200, 361,
  200, 362,
  200, 363,
  200, 364,
  200, 365,
  200, 366,
  200, 369,
  200, 371,
  200, 374,
  200, 376,
  200, 377,
  200, 378,
  200, 380,
  200, 384,
  200, 385,
  200, 386,
  200, 387,
  200, 388,
  200, 389,
  200, 390,
  200, 392,
  200, 394,
  200, 396,
  200, 397,
  201, 203,
  201, 204,
  201, 206,
  201, 210,
  201, 212,
  201, 216,
  201, 218,
  201, 220,
  201, 221,
  201, 222,
  201, 223,
  201, 224,
  201, 226,
  201, 234,
  201, 237,
  201, 238,
  201, 239,
  201, 240,
  201, 242,
  201, 244,
  201, 246,
  201, 248,
  201, 249,
  201, 251,
  201, 252,
  201, 254,
  201, 255,
  201, 257,
  201, 258,
  201, 260,
  201, 261,
  201, 262,
  201, 267,
  201, 268,
  201, 270,
  201, 271,
  201, 275,
  201, 276,
  201, 278,
  201, 282,
  201, 284,
  201, 285,
  201, 287,
  201, 289,
  201, 290,
  201, 291,
  201, 292,
  201, 294,
  201, 295,
  201, 296,
  201, 299,
  201, 300,
  201, 301,
  201, 302,
  201, 303,
  201, 305,
  201, 313,
  201, 314,
  201, 319,
  201, 320,
  201, 324,
  201, 325,
  201, 330,
  201, 331,
  201, 332,
  201, 333,
  201, 334,
  201, 335,
  201, 338,
  201, 339,
  201, 340,
  201, 341,
  201, 342,
  201, 346,
  201, 347,
  201, 348,
  201, 349,
  201, 350,
  201, 353,
  201, 354,
  201, 355,
  201, 356,
  201, 357,
  201, 360,
  201, 361,
  201, 364,
  201, 365,
  201, 367,
  201, 368,
  201, 369,
  201, 370,
  201, 371,
  201, 373,
  201, 377,
  201, 380,
  201, 381,
  201, 382,
  201, 385,
  201, 387,
  201, 389,
  201, 390,
  201, 393,
  201, 394,
  201, 395,
  201, 396,
  201, 398,
  201, 400,
  202, 204,
  202, 205,
  202, 206,
  202, 207,
  202, 208,
  202, 209,
  202, 211,
  202, 213,
  202, 219,
  202, 220,
  202, 221,
  202, 222,
  202, 226,
  202, 228,
  202, 229,
  202, 230,
  202, 232,
  202, 236,
  202, 237,
  202, 238,
  202, 239,
  202, 242,
  202, 245,
  202, 246,
  202, 247,
  202, 248,
  202, 249,
  202, 250,
  202, 253,
  202, 255,
  202, 256,
  202, 257,
  202, 261,
  202, 262,
  202, 266,
  202, 267,
  202, 268,
  202, 269,
  202, 270,
  202, 271,
  202, 272,
  202, 273,
  202, 277,
  202, 278,
  202, 280,
  202, 283,
  202, 284,
  202, 286,
  202, 289,
  202, 300,
  202, 302,
  202, 303,
  202, 305,
  202, 306,
  202, 308,
  202, 310,
  202, 313,
  202, 314,
  202, 315,
  202, 318,
  202, 319,
  202, 321,
  202, 323,
  202, 324,
  202, 326,
  202, 333,
  202, 334,
  202, 335,
  202, 337,
  202, 340,
  202, 345,
  202, 348,
  202, 352,
  202, 353,
  202, 354,
  202, 355,
  202, 358,
  202, 359,
  202, 360,
  202, 361,
  202, 362,
  202, 363,
  202, 364,
  202, 365,
  202, 366,
  202, 367,
  202, 369,
  202, 371,
  202, 376,
  202, 378,
  202, 379,
  202, 380,
  202, 381,
  202, 382,
  202, 383,
  202, 384,
  202, 386,
  202, 390,
  202, 392,
  202, 393,
  202, 394,
  202, 395,
  202, 397,
  203, 205,
  203, 207,
  203, 208,
  203, 210,
  203, 211,
  203, 212,
  203, 213,
  203, 217,
  203, 218,
  203, 219,
  203, 220,
  203, 221,
  203, 224,
  203, 225,
  203, 226,
  203, 228,
  203, 232,
  203, 233,
  203, 235,
  203, 239,
  203, 242,
  203, 244,
  203, 247,
  203, 248,
  203, 250,
  203, 251,
  203, 264,
  203, 265,
  203, 266,
  203, 270,
  203, 271,
  203, 274,
  203, 275,
  203, 276,
  203, 277,
  203, 280,
  203, 282,
  203, 285,
  203, 290,
  203, 292,
  203, 293,
  203, 295,
  203, 297,
  203, 299,
  203, 309,
  203, 311,
  203, 313,
  203, 314,
  203, 316,
  203, 317,
  203, 319,
  203, 320,
  203, 323,
  203, 326,
  203, 328,
  203, 329,
  203, 330,
  203, 331,
  203, 335,
  203, 337,
  203, 339,
  203, 343,
  203, 345,
  203, 349,
  203, 354,
  203, 356,
  203, 358,
  203, 360,
  203, 363,
  203, 365,
  203, 366,
  203, 369,
  203, 370,
  203, 371,
  203, 374,
  203, 375,
  203, 376,
  203, 377,
  203, 380,
  203, 385,
  203, 389,
  203, 399,
  204, 205,
  204, 206,
  204, 207,
  204, 208,
  204, 209,
  204, 210,
  204, 214,
  204, 215,
  204, 216,
  204, 220,
  204, 225,
  204, 229,
  204, 231,
  204, 233,
  204, 234,
  204, 235,
  204, 236,
  204, 240,
  204, 242,
  204, 243,
  204, 244,
  204, 245,
  204, 246,
  204, 250,
  204, 251,
  204, 255,
  204, 259,
  204, 260,
  204, 261,
  204, 262,
  204, 263,
  204, 264,
  204, 266,
  204, 268,
  204, 269,
  204, 270,
  204, 271,
  204, 276,
  204, 277,
  204, 282,
  204, 283,
  204, 284,
  204, 285,
  204, 289,
  204, 290,
  204, 292,
  204, 298,
  204, 299,
  204, 301,
  204, 302,
  204, 303,
  204, 306,
  204, 310,
  204, 311,
  204, 314,
  204, 316,
  204, 321,
  204, 322,
  204, 324,
  204, 325,
  204, 328,
  204, 333,
  204, 334,
  204, 335,
  204, 337,
  204, 339,
  204, 340,
  204, 342,
  204, 350,
  204, 352,
  204, 355,
  204, 356,
  204, 357,
  204, 358,
  204, 360,
  204, 364,
  204, 365,
  204, 366,
  204, 367,
  204, 368,
  204, 369,
  204, 370,
  204, 372,
  204, 373,
  204, 377,
  204, 378,
  204, 383,
  204, 384,
  204, 385,
  204, 386,
  204, 387,
  204, 388,
  204, 390,
  204, 391,
  204, 393,
  204, 394,
  204, 395,
  204, 396,
  204, 397,
  204, 398,
  205, 207,
  205, 209,
  205, 211,
  205, 212,
  205, 215,
  205, 216,
  205, 217,
  205, 218,
  205, 225,
  205, 226,
  205, 230,
  205, 232,
  205, 233,
  205, 234,
  205, 237,
  205, 238,
  205, 239,
  205, 241,
  205, 242,
  205, 243,
  205, 246,
  205, 248,
  205, 249,
  205, 251,
  205, 252,
  205, 256,
  205, 257,
  205, 259,
  205, 261,
  205, 266,
  205, 268,
  205, 269,
  205, 271,
  205, 272,
  205, 276,
  205, 277,
  205, 282,
  205, 283,
  205, 284,
  205, 286,
  205, 287,
  205, 293,
  205, 294,
  205, 296,
  205, 298,
  205, 300,
  205, 303,
  205, 304,
  205, 306,
  205, 307,
  205, 308,
  205, 311,
  205, 313,
  205, 315,
  205, 318,
  205, 321,
  205, 322,
  205, 324,
  205, 325,
  205, 326,
  205, 327,
  205, 329,
  205, 331,
  205, 332,
  205, 333,
  205, 334,
  205, 335,
  205, 336,
  205, 338,
  205, 340,
  205, 341,
  205, 344,
  205, 348,
  205, 349,
  205, 350,
  205, 352,
  205, 354,
  205, 362,
  205, 363,
  205, 364,
  205, 368,
  205, 369,
  205, 370,
  205, 371,
  205, 375,
  205, 376,
  205, 377,
  205, 378,
  205, 381,
  205, 384,
  205, 386,
  205, 388,
  205, 389,
  205, 391,
  205, 393,
  205, 394,
  205, 395,
  205, 396,
  205, 397,
  205, 400,
  206, 208,
  206, 212,
  206, 213,
  206, 218,
  206, 225,
  206, 228,
  206, 230,
  206, 232,
  206, 233,
  206, 237,
  206, 239,
  206, 240,
  206, 242,
  206, 243,
  206, 244,
  206, 245,
  206, 246,
  206, 249,
  206, 253,
  206, 254,
  206, 259,
  206, 260,
  206, 261,
  206, 265,
  206, 271,
  206, 273,
  206, 274,
  206, 275,
  206, 276,
  206, 277,
  206, 282,
  206, 288,
  206, 291,
  206, 294,
  206, 295,
  206, 297,
  206, 298,
  206, 303,
  206, 304,
  206, 305,
  206, 306,
  206, 308,
  206, 310,
  206, 312,
  206, 314,
  206, 315,
  206, 316,
  206, 318,
  206, 326,
  206, 328,
  206, 329,
  206, 330,
  206, 332,
  206, 334,
  206, 336,
  206, 337,
  206, 341,
  206, 342,
  206, 343,
  206, 350,
  206, 352,
  206, 353,
  206, 356,
  206, 358,
  206, 361,
  206, 362,
  206, 363,
  206, 365,
  206, 366,
  206, 367,
  206, 371,
  206, 373,
  206, 374,
  206, 377,
  206, 378,
  206, 380,
  206, 381,
  206, 387,
  206, 389,
  206, 390,
  206, 391,
  206, 392,
  206, 396,
  207, 210,
  207, 212,
  207, 213,
  207, 216,
  207, 217,
  207, 218,
  207, 219,
  207, 223,
  207, 224,
  207, 228,
  207, 229,
  207, 234,
  207, 236,
  207, 241,
  207, 242,
  207, 246,
  207, 247,
  207, 248,
  207, 250,
  207, 251,
  207, 253,
  207, 255,
  207, 260,
  207, 261,
  207, 262,
  207, 264,
  207, 267,
  207, 268,
  207, 270,
  207, 272,
  207, 273,
  207, 274,
  207, 276,
  207, 277,
  207, 279,
  207, 280,
  207, 282,
  207, 286,
  207, 287,
  207, 289,
  207, 290,
  207, 292,
  207, 298,
  207, 300,
  207, 301,
  207, 303,
  207, 304,
  207, 306,
  207, 307,
  207, 309,
  207, 310,
  207, 312,
  207, 315,
  207, 316,
  207, 317,
  207, 319,
  207, 322,
  207, 323,
  207, 326,
  207, 327,
  207, 328,
  207, 331,
  207, 335,
  207, 336,
  207, 337,
  207, 339,
  207, 341,
  207, 345,
  207, 347,
  207, 350,
  207, 352,
  207, 353,
  207, 354,
  207, 360,
  207, 362,
  207, 364,
  207, 368,
  207, 369,
  207, 370,
  207, 374,
  207, 375,
  207, 378,
  207, 379,
  207, 381,
  207, 382,
  207, 384,
  207, 387,
  207, 391,
  207, 393,
  207, 394,
  207, 395,
  208, 210,
  208, 212,
  208, 213,
  208, 214,
  208, 215,
  208, 217,
  208, 218,
  208, 219,
  208, 221,
  208, 223,
  208, 224,
  208, 226,
  208, 235,
  208, 236,
  208, 238,
  208, 239,
  208, 241,
  208, 244,
  208, 246,
  208, 251,
  208, 252,
  208, 254,
  208, 255,
  208, 257,
  208, 258,
  208, 259,
  208, 260,
  208, 263,
  208, 267,
  208, 271,
  208, 274,
  208, 275,
  208, 276,
  208, 277,
  208, 278,
  208, 283,
  208, 284,
  208, 288,
  208, 289,
  208, 290,
  208, 292,
  208, 294,
  208, 296,
  208, 297,
  208, 302,
  208, 303,
  208, 304,
  208, 307,
  208, 311,
  208, 313,
  208, 314,
  208, 315,
  208, 319,
  208, 320,
  208, 322,
  208, 325,
  208, 326,
  208, 327,
  208, 329,
  208, 331,
  208, 332,
  208, 333,
  208, 335,
  208, 337,
  208, 338,
  208, 340,
  208, 345,
  208, 348,
  208, 350,
  208, 351,
  208, 352,
  208, 358,
  208, 359,
  208, 360,
  208, 362,
  208, 365,
  208, 367,
  208, 369,
  208, 371,
  208, 373,
  208, 377,
  208, 381,
  208, 382,
  208, 383,
  208, 386,
  208, 387,
  208, 389,
  208, 390,
  208, 399,
  209, 210,
  209, 217,
  209, 220,
  209, 222,
  209, 224,
  209, 226,
  209, 227,
  209, 228,
  209, 229,
  209, 237,
  209, 244,
  209, 250,
  209, 254,
  209, 255,
  209, 258,
  209, 259,
  209, 261,
  209, 264,
  209, 265,
  209, 266,
  209, 267,
  209, 268,
  209, 269,
  209, 270,
  209, 271,
  209, 273,
  209, 275,
  209, 276,
  209, 277,
  209, 278,
  209, 279,
  209, 281,
  209, 283,
  209, 284,
  209, 286,
  209, 290,
  209, 291,
  209, 292,
  209, 293,
  209, 295,
  209, 297,
  209, 303,
  209, 305,
  209, 307,
  209, 308,
  209, 317,
  209, 318,
  209, 321,
  209, 323,
  209, 325,
  209, 327,
  209, 329,
  209, 332,
  209, 334,
  209, 335,
  209, 336,
  209, 337,
  209, 340,
  209, 343,
  209, 344,
  209, 345,
  209, 347,
  209, 350,
  209, 351,
  209, 353,
  209, 355,
  209, 362,
  209, 364,
  209, 366,
  209, 367,
  209, 370,
  209, 372,
  209, 373,
  209, 374,
  209, 378,
  209, 381,
  209, 383,
  209, 384,
  209, 386,
  209, 387,
  209, 388,
  209, 391,
  209, 393,
  209, 394,
  209, 396,
  209, 398,
  209, 399,
  210, 212,
  210, 213,
  210, 214,
  210, 216,
  210, 221,
  210, 223,
  210, 227,
  210, 228,
  210, 229,
  210, 230,
  210, 231,
  210, 234,
  210, 241,
  210, 242,
  210, 246,
  210, 248,
  210, 249,
  210, 251,
  210, 252,
  210, 257,
  210, 258,
  210, 259,
  210, 260,
  210, 262,
  210, 263,
  210, 264,
  210, 266,
  210, 268,
  210, 274,
  210, 277,
  210, 278,
  210, 279,
  210, 281,
  210, 283,
  210, 285,
  210, 288,
  210, 291,
  210, 293,
  210, 294,
  210, 295,
  210, 297,
  210, 298,
  210, 301,
  210, 304,
  210, 305,
  210, 309,
  210, 314,
  210, 315,
  210, 317,
  210, 318,
  210, 319,
  210, 324,
  210, 330,
  210, 331,
  210, 332,
  210, 335,
  210, 336,
  210, 337,
  210, 338,
  210, 339,
  210, 340,
  210, 345,
  210, 347,
  210, 348,
  210, 350,
  210, 351,
  210, 352,
  210, 355,
  210, 356,
  210, 359,
  210, 361,
  210, 363,
  210, 364,
  210, 367,
  210, 368,
  210, 371,
  210, 374,
  210, 375,
  210, 377,
  210, 378,
  210, 382,
  210, 383,
  210, 384,
  210, 386,
  210, 388,
  210, 389,
  210, 391,
  210, 392,
  210, 393,
  210, 397,
  210, 400,
  211, 212,
  211, 214,
  211, 218,
  211, 220,
  211, 221,
  211, 222,
  211, 223,
  211, 226,
  211, 227,
  211, 229,
  211, 230,
  211, 231,
  211, 232,
  211, 233,
  211, 236,
  211, 237,
  211, 238,
  211, 239,
  211, 241,
  211, 242,
  211, 244,
  211, 246,
  211, 252,
  211, 255,
  211, 261,
  211, 262,
  211, 263,
  211, 264,
  211, 265,
  211, 267,
  211, 269,
  211, 271,
  211, 272,
  211, 274,
  211, 279,
  211, 280,
  211, 281,
  211, 282,
  211, 283,
  211, 285,
  211, 287,
  211, 288,
  211, 292,
  211, 293,
  211, 294,
  211, 297,
  211, 298,
  211, 299,
  211, 301,
  211, 302,
  211, 303,
  211, 304,
  211, 306,
  211, 307,
  211, 309,
  211, 310,
  211, 311,
  211, 313,
  211, 315,
  211, 316,
  211, 317,
  211, 320,
  211, 321,
  211, 325,
  211, 326,
  211, 327,
  211, 328,
  211, 329,
  211, 332,
  211, 333,
  211, 337,
  211, 339,
  211, 340,
  211, 344,
  211, 346,
  211, 347,
  211, 348,
  211, 351,
  211, 353,
  211, 354,
  211, 355,
  211, 357,
  211, 359,
  211, 361,
  211, 362,
  211, 363,
  211, 366,
  211, 367,
  211, 368,
  211, 370,
  211, 372,
  211, 373,
  211, 375,
  211, 376,
  211, 377,
  211, 379,
  211, 380,
  211, 381,
  211, 384,
  211, 385,
  211, 388,
  211, 392,
  211, 393,
  211, 395,
  211, 396,
  211, 398,
  211, 399,
  211, 400,
  212, 214,
  212, 223,
  212, 224,
  212, 225,
  212, 226,
  212, 227,
  212, 229,
  212, 232,
  212, 236,
  212, 237,
  212, 238,
  212, 240,
  212, 243,
  212, 244,
  212, 245,
  212, 249,
  212, 250,
  212, 251,
  212, 253,
  212, 254,
  212, 256,
  212, 257,
  212, 258,
  212, 262,
  212, 265,
  212, 266,
  212, 268,
  212, 269,
  212, 271,
  212, 272,
  212, 273,
  212, 275,
  212, 276,
  212, 277,
  212, 279,
  212, 280,
  212, 282,
  212, 283,
  212, 285,
  212, 288,
  212, 292,
  212, 293,
  212, 294,
  212, 295,
  212, 298,
  212, 302,
  212, 304,
  212, 305,
  212, 306,
  212, 309,
  212, 311,
  212, 312,
  212, 313,
  212, 319,
  212, 320,
  212, 322,
  212, 324,
  212, 325,
  212, 327,
  212, 328,
  212, 331,
  212, 332,
  212, 333,
  212, 336,
  212, 337,
  212, 338,
  212, 339,
  212, 340,
  212, 341,
  212, 342,
  212, 343,
  212, 344,
  212, 346,
  212, 347,
  212, 349,
  212, 350,
  212, 351,
  212, 354,
  212, 355,
  212, 356,
  212, 357,
  212, 359,
  212, 360,
  212, 363,
  212, 365,
  212, 366,
  212, 368,
  212, 370,
  212, 372,
  212, 373,
  212, 374,
  212, 376,
  212, 377,
  212, 378,
  212, 379,
  212, 387,
  212, 388,
  212, 389,
  212, 393,
  212, 394,
  212, 395,
  212, 397,
  213, 216,
  213, 217,
  213, 218,
  213, 221,
  213, 226,
  213, 229,
  213, 230,
  213, 233,
  213, 234,
  213, 237,
  213, 242,
  213, 243,
  213, 246,
  213, 248,
  213, 249,
  213, 250,
  213, 253,
  213, 254,
  213, 256,
  213, 257,
  213, 258,
  213, 259,
  213, 260,
  213, 261,
  213, 262,
  213, 264,
  213, 265,
  213, 267,
  213, 271,
  213, 272,
  213, 273,
  213, 275,
  213, 277,
  213, 278,
  213, 283,
  213, 285,
  213, 286,
  213, 287,
  213, 288,
  213, 296,
  213, 297,
  213, 302,
  213, 305,
  213, 306,
  213, 307,
  213, 308,
  213, 312,
  213, 313,
  213, 314,
  213, 316,
  213, 317,
  213, 319,
  213, 320,
  213, 322,
  213, 324,
  213, 325,
  213, 327,
  213, 329,
  213, 331,
  213, 341,
  213, 343,
  213, 344,
  213, 345,
  213, 352,
  213, 353,
  213, 354,
  213, 361,
  213, 363,
  213, 364,
  213, 366,
  213, 367,
  213, 368,
  213, 369,
  213, 370,
  213, 372,
  213, 379,
  213, 380,
  213, 383,
  213, 384,
  213, 388,
  213, 389,
  213, 394,
  213, 396,
  213, 399,
  214, 215,
  214, 216,
  214, 218,
  214, 219,
  214, 220,
  214, 224,
  214, 225,
  214, 226,
  214, 227,
  214, 229,
  214, 232,
  214, 235,
  214, 237,
  214, 238,
  214, 244,
  214, 245,
  214, 246,
  214, 249,
  214, 250,
  214, 251,
  214, 256,
  214, 258,
  214, 259,
  214, 260,
  214, 266,
  214, 267,
  214, 269,
  214, 274,
  214, 276,
  214, 277,
  214, 279,
  214, 280,
  214, 284,
  214, 285,
  214, 286,
  214, 287,
  214, 288,
  214, 290,
  214, 291,
  214, 293,
  214, 297,
  214, 298,
  214, 301,
  214, 308,
  214, 310,
  214, 318,
  214, 319,
  214, 323,
  214, 324,
  214, 325,
  214, 326,
  214, 327,
  214, 329,
  214, 330,
  214, 333,
  214, 335,
  214, 338,
  214, 339,
  214, 342,
  214, 343,
  214, 347,
  214, 348,
  214, 350,
  214, 355,
  214, 357,
  214, 358,
  214, 359,
  214, 360,
  214, 361,
  214, 363,
  214, 365,
  214, 368,
  214, 369,
  214, 371,
  214, 373,
  214, 374,
  214, 375,
  214, 377,
  214, 378,
  214, 380,
  214, 381,
  214, 383,
  214, 384,
  214, 385,
  214, 387,
  214, 389,
  214, 392,
  214, 393,
  214, 395,
  214, 396,
  214, 397,
  214, 398,
  215, 218,
  215, 222,
  215, 224,
  215, 225,
  215, 226,
  215, 227,
  215, 229,
  215, 230,
  215, 232,
  215, 234,
  215, 236,
  215, 237,
  215, 238,
  215, 239,
  215, 240,
  215, 241,
  215, 242,
  215, 244,
  215, 250,
  215, 252,
  215, 253,
  215, 254,
  215, 258,
  215, 259,
  215, 260,
  215, 265,
  215, 266,
  215, 267,
  215, 268,
  215, 270,
  215, 274,
  215, 275,
  215, 278,
  215, 279,
  215, 280,
  215, 281,
  215, 282,
  215, 284,
  215, 285,
  215, 288,
  215, 289,
  215, 290,
  215, 291,
  215, 295,
  215, 299,
  215, 301,
  215, 307,
  215, 308,
  215, 310,
  215, 313,
  215, 315,
  215, 316,
  215, 318,
  215, 322,
  215, 324,
  215, 326,
  215, 330,
  215, 332,
  215, 333,
  215, 336,
  215, 337,
  215, 338,
  215, 339,
  215, 340,
  215, 342,
  215, 343,
  215, 344,
  215, 347,
  215, 349,
  215, 350,
  215, 352,
  215, 357,
  215, 358,
  215, 361,
  215, 362,
  215, 363,
  215, 368,
  215, 372,
  215, 373,
  215, 374,
  215, 375,
  215, 378,
  215, 379,
  215, 380,
  215, 382,
  215, 383,
  215, 385,
  215, 386,
  215, 387,
  215, 390,
  215, 391,
  215, 392,
  215, 394,
  215, 395,
  215, 396,
  215, 397,
  215, 398,
  215, 399,
  215, 400,
  216, 217,
  216, 218,
  216, 219,
  216, 221,
  216, 225,
  216, 226,
  216, 229,
  216, 237,
  216, 240,
  216, 241,
  216, 243,
  216, 244,
  216, 245,
  216, 260,
  216, 261,
  216, 262,
  216, 264,
  216, 267,
  216, 269,
  216, 270,
  216, 272,
  216, 273,
  216, 276,
  216, 277,
  216, 280,
  216, 283,
  216, 284,
  216, 286,
  216, 289,
  216, 290,
  216, 291,
  216, 292,
  216, 293,
  216, 294,
  216, 296,
  216, 297,
  216, 300,
  216, 301,
  216, 308,
  216, 309,
  216, 311,
  216, 313,
  216, 316,
  216, 320,
  216, 322,
  216, 323,
  216, 328,
  216, 329,
  216, 330,
  216, 331,
  216, 332,
  216, 333,
  216, 334,
  216, 335,
  216, 336,
  216, 338,
  216, 339,
  216, 340,
  216, 341,
  216, 342,
  216, 343,
  216, 344,
  216, 346,
  216, 352,
  216, 354,
  216, 355,
  216, 358,
  216, 362,
  216, 364,
  216, 366,
  216, 367,
  216, 369,
  216, 370,
  216, 371,
  216, 378,
  216, 380,
  216, 383,
  216, 384,
  216, 387,
  216, 389,
  216, 390,
  216, 392,
  216, 393,
  216, 396,
  217, 219,
  217, 220,
  217, 221,
  217, 223,
  217, 225,
  217, 226,
  217, 227,
  217, 228,
  217, 229,
  217, 233,
  217, 236,
  217, 237,
  217, 240,
  217, 242,
  217, 244,
  217, 245,
  217, 250,
  217, 252,
  217, 253,
  217, 254,
  217, 255,
  217, 256,
  217, 258,
  217, 259,
  217, 261,
  217, 266,
  217, 268,
  217, 269,
  217, 273,
  217, 277,
  217, 278,
  217, 280,
  217, 281,
  217, 282,
  217, 286,
  217, 288,
  217, 289,
  217, 293,
  217, 295,
  217, 296,
  217, 298,
  217, 300,
  217, 301,
  217, 305,
  217, 306,
  217, 307,
  217, 308,
  217, 310,
  217, 312,
  217, 316,
  217, 319,
  217, 321,
  217, 322,
  217, 325,
  217, 329,
  217, 331,
  217, 334,
  217, 336,
  217, 338,
  217, 339,
  217, 341,
  217, 342,
  217, 347,
  217, 348,
  217, 349,
  217, 350,
  217, 351,
  217, 354,
  217, 355,
  217, 357,
  217, 358,
  217, 360,
  217, 361,
  217, 362,
  217, 364,
  217, 368,
  217, 370,
  217, 371,
  217, 373,
  217, 374,
  217, 377,
  217, 379,
  217, 382,
  217, 384,
  217, 385,
  217, 386,
  217, 389,
  217, 391,
  217, 392,
  217, 394,
  217, 396,
  217, 399,
  218, 223,
  218, 224,
  218, 225,
  218, 226,
  218, 227,
  218, 229,
  218, 230,
  218, 237,
  218, 238,
  218, 239,
  218, 240,
  218, 241,
  218, 244,
  218, 246,
  218, 254,
  218, 255,
  218, 256,
  218, 257,
  218, 258,
  218, 259,
  218, 260,
  218, 261,
  218, 262,
  218, 263,
  218, 265,
  218, 267,
  218, 270,
  218, 274,
  218, 276,
  218, 277,
  218, 279,
  218, 281,
  218, 282,
  218, 283,
  218, 285,
  218, 288,
  218, 293,
  218, 294,
  218, 295,
  218, 296,
  218, 297,
  218, 300,
  218, 301,
  218, 302,
  218, 303,
  218, 309,
  218, 311,
  218, 313,
  218, 314,
  218, 317,
  218, 318,
  218, 320,
  218, 325,
  218, 326,
  218, 327,
  218, 329,
  218, 330,
  218, 331,
  218, 334,
  218, 336,
  218, 338,
  218, 340,
  218, 344,
  218, 346,
  218, 348,
  218, 349,
  218, 351,
  218, 352,
  218, 353,
  218, 354,
  218, 355,
  218, 357,
  218, 360,
  218, 361,
  218, 362,
  218, 364,
  218, 365,
  218, 366,
  218, 367,
  218, 368,
  218, 369,
  218, 371,
  218, 374,
  218, 377,
  218, 381,
  218, 382,
  218, 383,
  218, 387,
  218, 393,
  218, 394,
  218, 395,
  218, 396,
  218, 397,
  218, 399,
  218, 400,
  219, 221,
  219, 224,
  219, 236,
  219, 237,
  219, 238,
  219, 242,
  219, 243,
  219, 244,
  219, 245,
  219, 246,
  219, 249,
  219, 251,
  219, 252,
  219, 257,
  219, 258,
  219, 259,
  219, 260,
  219, 268,
  219, 270,
  219, 273,
  219, 280,
  219, 281,
  219, 283,
  219, 284,
  219, 288,
  219, 291,
  219, 292,
  219, 293,
  219, 295,
  219, 296,
  219, 298,
  219, 299,
  219, 301,
  219, 302,
  219, 307,
  219, 308,
  219, 310,
  219, 311,
  219, 312,
  219, 313,
  219, 318,
  219, 319,
  219, 320,
  219, 321,
  219, 323,
  219, 324,
  219, 327,
  219, 328,
  219, 331,
  219, 337,
  219, 339,
  219, 341,
  219, 342,
  219, 343,
  219, 346,
  219, 349,
  219, 353,
  219, 354,
  219, 355,
  219, 361,
  219, 368,
  219, 369,
  219, 371,
  219, 372,
  219, 374,
  219, 377,
  219, 379,
  219, 382,
  219, 384,
  219, 385,
  219, 386,
  219, 389,
  219, 392,
  219, 393,
  219, 394,
  219, 395,
  219, 396,
  219, 400,
  220, 222,
  220, 223,
  220, 224,
  220, 227,
  220, 229,
  220, 230,
  220, 235,
  220, 237,
  220, 239,
  220, 242,
  220, 245,
  220, 247,
  220, 248,
  220, 252,
  220, 253,
  220, 254,
  220, 255,
  220, 257,
  220, 258,
  220, 260,
  220, 261,
  220, 262,
  220, 264,
  220, 265,
  220, 266,
  220, 270,
  220, 272,
  220, 273,
  220, 274,
  220, 275,
  220, 276,
  220, 277,
  220, 280,
  220, 281,
  220, 282,
  220, 286,
  220, 287,
  220, 290,
  220, 291,
  220, 293,
  220, 294,
  220, 295,
  220, 300,
  220, 302,
  220, 304,
  220, 305,
  220, 306,
  220, 307,
  220, 309,
  220, 313,
  220, 316,
  220, 317,
  220, 320,
  220, 321,
  220, 322,
  220, 329,
  220, 330,
  220, 331,
  220, 332,
  220, 336,
  220, 337,
  220, 340,
  220, 341,
  220, 342,
  220, 343,
  220, 345,
  220, 346,
  220, 348,
  220, 349,
  220, 351,
  220, 354,
  220, 355,
  220, 356,
  220, 360,
  220, 362,
  220, 369,
  220, 370,
  220, 372,
  220, 373,
  220, 381,
  220, 382,
  220, 383,
  220, 384,
  220, 386,
  220, 388,
  220, 391,
  220, 393,
  220, 394,
  220, 400,
  221, 222,
  221, 226,
  221, 227,
  221, 228,
  221, 229,
  221, 230,
  221, 231,
  221, 232,
  221, 233,
  221, 234,
  221, 235,
  221, 236,
  221, 237,
  221, 238,
  221, 239,
  221, 240,
  221, 241,
  221, 249,
  221, 250,
  221, 251,
  221, 252,
  221, 253,
  221, 254,
  221, 257,
  221, 259,
  221, 261,
  221, 267,
  221, 268,
  221, 271,
  221, 274,
  221, 276,
  221, 282,
  221, 283,
  221, 284,
  221, 290,
  221, 291,
  221, 292,
  221, 294,
  221, 296,
  221, 303,
  221, 304,
  221, 306,
  221, 307,
  221, 310,
  221, 311,
  221, 315,
  221, 327,
  221, 330,
  221, 332,
  221, 333,
  221, 334,
  221, 336,
  221, 338,
  221, 340,
  221, 342,
  221, 343,
  221, 345,
  221, 346,
  221, 348,
  221, 349,
  221, 350,
  221, 351,
  221, 353,
  221, 355,
  221, 359,
  221, 361,
  221, 363,
  221, 366,
  221, 368,
  221, 369,
  221, 372,
  221, 375,
  221, 377,
  221, 379,
  221, 380,
  221, 383,
  221, 384,
  221, 385,
  221, 388,
  221, 389,
  221, 393,
  221, 394,
  221, 396,
  221, 400,
  222, 224,
  222, 225,
  222, 233,
  222, 239,
  222, 240,
  222, 242,
  222, 245,
  222, 247,
  222, 248,
  222, 249,
  222, 253,
  222, 260,
  222, 261,
  222, 262,
  222, 265,
  222, 266,
  222, 269,
  222, 271,
  222, 273,
  222, 274,
  222, 277,
  222, 279,
  222, 282,
  222, 285,
  222, 286,
  222, 288,
  222, 289,
  222, 291,
  222, 293,
  222, 296,
  222, 298,
  222, 299,
  222, 300,
  222, 301,
  222, 302,
  222, 304,
  222, 305,
  222, 308,
  222, 312,
  222, 313,
  222, 315,
  222, 321,
  222, 322,
  222, 327,
  222, 329,
  222, 331,
  222, 333,
  222, 345,
  222, 346,
  222, 347,
  222, 357,
  222, 361,
  222, 363,
  222, 364,
  222, 369,
  222, 372,
  222, 373,
  222, 374,
  222, 375,
  222, 376,
  222, 377,
  222, 378,
  222, 379,
  222, 380,
  222, 381,
  222, 382,
  222, 384,
  222, 388,
  222, 390,
  222, 396,
  222, 397,
  222, 399,
  222, 400,
  223, 227,
  223, 228,
  223, 230,
  223, 232,
  223, 233,
  223, 235,
  223, 238,
  223, 239,
  223, 240,
  223, 241,
  223, 242,
  223, 243,
  223, 244,
  223, 245,
  223, 247,
  223, 249,
  223, 250,
  223, 251,
  223, 253,
  223, 255,
  223, 257,
  223, 260,
  223, 261,
  223, 262,
  223, 264,
  223, 265,
  223, 268,
  223, 269,
  223, 271,
  223, 274,
  223, 275,
  223, 276,
  223, 277,
  223, 278,
  223, 279,
  223, 281,
  223, 284,
  223, 287,
  223, 293,
  223, 294,
  223, 295,
  223, 298,
  223, 299,
  223, 300,
  223, 302,
  223, 310,
  223, 316,
  223, 317,
  223, 318,
  223, 319,
  223, 323,
  223, 326,
  223, 328,
  223, 330,
  223, 332,
  223, 337,
  223, 339,
  223, 341,
  223, 343,
  223, 344,
  223, 345,
  223, 346,
  223, 351,
  223, 353,
  223, 355,
  223, 356,
  223, 358,
  223, 362,
  223, 365,
  223, 366,
  223, 367,
  223, 371,
  223, 372,
  223, 373,
  223, 374,
  223, 375,
  223, 376,
  223, 378,
  223, 380,
  223, 383,
  223, 384,
  223, 385,
  223, 386,
  223, 388,
  223, 389,
  223, 393,
  223, 394,
  223, 397,
  223, 399,
  224, 227,
  224, 229,
  224, 231,
  224, 233,
  224, 234,
  224, 235,
  224, 236,
  224, 239,
  224, 241,
  224, 244,
  224, 245,
  224, 249,
  224, 255,
  224, 257,
  224, 258,
  224, 260,
  224, 264,
  224, 267,
  224, 268,
  224, 270,
  224, 272,
  224, 273,
  224, 275,
  224, 282,
  224, 285,
  224, 288,
  224, 290,
  224, 292,
  224, 296,
  224, 297,
  224, 298,
  224, 302,
  224, 304,
  224, 305,
  224, 307,
  224, 309,
  224, 310,
  224, 312,
  224, 313,
  224, 314,
  224, 315,
  224, 317,
  224, 319,
  224, 320,
  224, 321,
  224, 322,
  224, 323,
  224, 324,
  224, 326,
  224, 327,
  224, 330,
  224, 336,
  224, 337,
  224, 338,
  224, 340,
  224, 341,
  224, 342,
  224, 344,
  224, 345,
  224, 346,
  224, 349,
  224, 350,
  224, 353,
  224, 355,
  224, 357,
  224, 359,
  224, 360,
  224, 361,
  224, 362,
  224, 363,
  224, 364,
  224, 367,
  224, 368,
  224, 372,
  224, 376,
  224, 378,
  224, 380,
  224, 385,
  224, 386,
  224, 387,
  224, 388,
  224, 389,
  224, 390,
  224, 391,
  224, 393,
  224, 394,
  224, 396,
  224, 397,
  224, 398,
  225, 226,
  225, 230,
  225, 232,
  225, 235,
  225, 236,
  225, 238,
  225, 241,
  225, 244,
  225, 245,
  225, 246,
  225, 247,
  225, 248,
  225, 249,
  225, 250,
  225, 252,
  225, 254,
  225, 258,
  225, 260,
  225, 261,
  225, 263,
  225, 266,
  225, 274,
  225, 275,
  225, 277,
  225, 278,
  225, 279,
  225, 280,
  225, 282,
  225, 283,
  225, 288,
  225, 289,
  225, 290,
  225, 291,
  225, 292,
  225, 294,
  225, 295,
  225, 298,
  225, 300,
  225, 306,
  225, 309,
  225, 311,
  225, 312,
  225, 316,
  225, 318,
  225, 319,
  225, 320,
  225, 323,
  225, 324,
  225, 325,
  225, 327,
  225, 328,
  225, 330,
  225, 331,
  225, 332,
  225, 333,
  225, 335,
  225, 336,
  225, 338,
  225, 341,
  225, 342,
  225, 346,
  225, 347,
  225, 348,
  225, 351,
  225, 352,
  225, 357,
  225, 358,
  225, 360,
  225, 361,
  225, 362,
  225, 363,
  225, 368,
  225, 369,
  225, 370,
  225, 372,
  225, 373,
  225, 375,
  225, 376,
  225, 378,
  225, 379,
  225, 381,
  225, 385,
  225, 386,
  225, 387,
  225, 388,
  225, 390,
  225, 393,
  225, 396,
  225, 397,
  225, 398,
  225, 400,
  226, 227,
  226, 228,
  226, 230,
  226, 231,
  226, 235,
  226, 236,
  226, 237,
  226, 239,
  226, 244,
  226, 245,
  226, 249,
  226, 250,
  226, 251,
  226, 252,
  226, 253,
  226, 255,
  226, 256,
  226, 257,
  226, 259,
  226, 261,
  226, 262,
  226, 264,
  226, 265,
  226, 267,
  226, 269,
  226, 270,
  226, 274,
  226, 275,
  226, 276,
  226, 277,
  226, 280,
  226, 281,
  226, 282,
  226, 283,
  226, 286,
  226, 288,
  226, 289,
  226, 291,
  226, 293,
  226, 295,
  226, 296,
  226, 301,
  226, 302,
  226, 303,
  226, 307,
  226, 310,
  226, 312,
  226, 313,
  226, 316,
  226, 319,
  226, 323,
  226, 330,
  226, 334,
  226, 336,
  226, 337,
  226, 338,
  226, 340,
  226, 342,
  226, 347,
  226, 348,
  226, 350,
  226, 352,
  226, 355,
  226, 356,
  226, 358,
  226, 359,
  226, 360,
  226, 362,
  226, 365,
  226, 366,
  226, 368,
  226, 372,
  226, 374,
  226, 377,
  226, 378,
  226, 380,
  226, 381,
  226, 382,
  226, 386,
  226, 389,
  226, 396,
  226, 398,
  226, 399,
  226, 400,
  227, 229,
  227, 231,
  227, 233,
  227, 234,
  227, 235,
  227, 236,
  227, 238,
  227, 241,
  227, 245,
  227, 247,
  227, 250,
  227, 253,
  227, 255,
  227, 256,
  227, 259,
  227, 260,
  227, 263,
  227, 264,
  227, 265,
  227, 266,
  227, 267,
  227, 268,
  227, 271,
  227, 272,
  227, 274,
  227, 278,
  227, 279,
  227, 280,
  227, 284,
  227, 286,
  227, 287,
  227, 288,
  227, 293,
  227, 294,
  227, 296,
  227, 297,
  227, 298,
  227, 300,
  227, 302,
  227, 303,
  227, 304,
  227, 306,
  227, 309,
  227, 311,
  227, 312,
  227, 313,
  227, 314,
  227, 315,
  227, 318,
  227, 320,
  227, 321,
  227, 325,
  227, 326,
  227, 328,
  227, 331,
  227, 332,
  227, 340,
  227, 346,
  227, 348,
  227, 349,
  227, 353,
  227, 354,
  227, 355,
  227, 358,
  227, 360,
  227, 361,
  227, 364,
  227, 366,
  227, 367,
  227, 369,
  227, 372,
  227, 376,
  227, 377,
  227, 378,
  227, 380,
  227, 381,
  227, 382,
  227, 384,
  227, 387,
  227, 388,
  227, 389,
  227, 390,
  227, 392,
  227, 397,
  227, 398,
  227, 399,
  228, 230,
  228, 232,
  228, 236,
  228, 237,
  228, 238,
  228, 240,
  228, 242,
  228, 243,
  228, 244,
  228, 245,
  228, 248,
  228, 250,
  228, 251,
  228, 252,
  228, 255,
  228, 256,
  228, 257,
  228, 262,
  228, 263,
  228, 264,
  228, 267,
  228, 268,
  228, 269,
  228, 270,
  228, 272,
  228, 274,
  228, 275,
  228, 276,
  228, 277,
  228, 280,
  228, 282,
  228, 283,
  228, 285,
  228, 286,
  228, 287,
  228, 290,
  228, 291,
  228, 293,
  228, 294,
  228, 295,
  228, 298,
  228, 299,
  228, 304,
  228, 305,
  228, 306,
  228, 309,
  228, 312,
  228, 313,
  228, 314,
  228, 315,
  228, 316,
  228, 317,
  228, 318,
  228, 323,
  228, 325,
  228, 326,
  228, 327,
  228, 332,
  228, 334,
  228, 336,
  228, 337,
  228, 341,
  228, 344,
  228, 345,
  228, 347,
  228, 348,
  228, 349,
  228, 352,
  228, 355,
  228, 358,
  228, 359,
  228, 360,
  228, 361,
  228, 362,
  228, 363,
  228, 367,
  228, 368,
  228, 369,
  228, 372,
  228, 374,
  228, 375,
  228, 379,
  228, 380,
  228, 382,
  228, 383,
  228, 387,
  228, 388,
  228, 389,
  228, 391,
  228, 394,
  228, 397,
  228, 399,
  229, 230,
  229, 232,
  229, 233,
  229, 234,
  229, 235,
  229, 237,
  229, 238,
  229, 239,
  229, 240,
  229, 241,
  229, 246,
  229, 247,
  229, 249,
  229, 250,
  229, 253,
  229, 256,
  229, 258,
  229, 260,
  229, 263,
  229, 265,
  229, 266,
  229, 267,
  229, 269,
  229, 270,
  229, 272,
  229, 274,
  229, 275,
  229, 279,
  229, 280,
  229, 281,
  229, 282,
  229, 283,
  229, 284,
  229, 285,
  229, 286,
  229, 289,
  229, 291,
  229, 297,
  229, 300,
  229, 302,
  229, 305,
  229, 307,
  229, 308,
  229, 310,
  229, 311,
  229, 312,
  229, 314,
  229, 317,
  229, 318,
  229, 319,
  229, 323,
  229, 325,
  229, 329,
  229, 331,
  229, 332,
  229, 333,
  229, 334,
  229, 339,
  229, 341,
  229, 342,
  229, 344,
  229, 345,
  229, 347,
  229, 349,
  229, 350,
  229, 352,
  229, 353,
  229, 355,
  229, 356,
  229, 357,
  229, 358,
  229, 360,
  229, 361,
  229, 362,
  229, 363,
  229, 368,
  229, 369,
  229, 372,
  229, 374,
  229, 375,
  229, 381,
  229, 386,
  229, 387,
  229, 388,
  229, 390,
  229, 393,
  229, 395,
  229, 398,
  229, 400,
  230, 231,
  230, 232,
  230, 234,
  230, 237,
  230, 240,
  230, 248,
  230, 249,
  230, 250,
  230, 251,
  230, 252,
  230, 257,
  230, 258,
  230, 259,
  230, 260,
  230, 262,
  230, 263,
  230, 267,
  230, 268,
  230, 269,
  230, 270,
  230, 271,
  230, 274,
  230, 275,
  230, 276,
  230, 277,
  230, 279,
  230, 281,
  230, 283,
  230, 286,
  230, 287,
  230, 290,
  230, 291,
  230, 292,
  230, 294,
  230, 298,
  230, 299,
  230, 301,
  230, 303,
  230, 304,
  230, 306,
  230, 309,
  230, 310,
  230, 314,
  230, 319,
  230, 320,
  230, 323,
  230, 324,
  230, 325,
  230, 326,
  230, 328,
  230, 329,
  230, 331,
  230, 332,
  230, 335,
  230, 337,
  230, 338,
  230, 339,
  230, 341,
  230, 343,
  230, 344,
  230, 345,
  230, 346,
  230, 347,
  230, 348,
  230, 352,
  230, 356,
  230, 357,
  230, 358,
  230, 361,
  230, 362,
  230, 364,
  230, 365,
  230, 367,
  230, 369,
  230, 370,
  230, 371,
  230, 372,
  230, 373,
  230, 376,
  230, 377,
  230, 379,
  230, 381,
  230, 384,
  230, 385,
  230, 386,
  230, 387,
  230, 388,
  230, 389,
  230, 390,
  230, 391,
  230, 394,
  230, 398,
  230, 399,
  231, 233,
  231, 237,
  231, 239,
  231, 240,
  231, 242,
  231, 245,
  231, 246,
  231, 249,
  231, 252,
  231, 263,
  231, 265,
  231, 266,
  231, 267,
  231, 268,
  231, 269,
  231, 270,
  231, 272,
  231, 277,
  231, 278,
  231, 279,
  231, 282,
  231, 285,
  231, 286,
  231, 288,
  231, 289,
  231, 290,
  231, 292,
  231, 293,
  231, 294,
  231, 295,
  231, 299,
  231, 303,
  231, 305,
  231, 306,
  231, 307,
  231, 308,
  231, 311,
  231, 314,
  231, 315,
  231, 320,
  231, 321,
  231, 322,
  231, 324,
  231, 325,
  231, 327,
  231, 328,
  231, 329,
  231, 330,
  231, 331,
  231, 334,
  231, 335,
  231, 336,
  231, 338,
  231, 339,
  231, 340,
  231, 347,
  231, 348,
  231, 349,
  231, 350,
  231, 351,
  231, 353,
  231, 360,
  231, 361,
  231, 364,
  231, 368,
  231, 369,
  231, 371,
  231, 372,
  231, 373,
  231, 374,
  231, 375,
  231, 377,
  231, 379,
  231, 381,
  231, 383,
  231, 385,
  231, 386,
  231, 387,
  231, 388,
  231, 390,
  231, 392,
  231, 393,
  231, 397,
  231, 399,
  231, 400,
  232, 233,
  232, 235,
  232, 238,
  232, 239,
  232, 241,
  232, 243,
  232, 244,
  232, 245,
  232, 247,
  232, 249,
  232, 250,
  232, 251,
  232, 252,
  232, 257,
  232, 260,
  232, 261,
  232, 264,
  232, 266,
  232, 267,
  232, 268,
  232, 269,
  232, 270,
  232, 271,
  232, 273,
  232, 276,
  232, 278,
  232, 279,
  232, 280,
  232, 281,
  232, 284,
  232, 286,
  232, 292,
  232, 294,
  232, 299,
  232, 302,
  232, 304,
  232, 305,
  232, 306,
  232, 307,
  232, 310,
  232, 311,
  232, 313,
  232, 314,
  232, 315,
  232, 316,
  232, 317,
  232, 318,
  232, 320,
  232, 324,
  232, 325,
  232, 327,
  232, 328,
  232, 330,
  232, 331,
  232, 332,
  232, 334,
  232, 335,
  232, 338,
  232, 339,
  232, 340,
  232, 341,
  232, 343,
  232, 346,
  232, 347,
  232, 348,
  232, 350,
  232, 353,
  232, 354,
  232, 356,
  232, 361,
  232, 362,
  232, 363,
  232, 364,
  232, 370,
  232, 372,
  232, 373,
  232, 374,
  232, 375,
  232, 376,
  232, 377,
  232, 378,
  232, 380,
  232, 382,
  232, 383,
  232, 384,
  232, 386,
  232, 387,
  232, 391,
  232, 392,
  232, 393,
  232, 396,
  232, 397,
  232, 400,
  233, 234,
  233, 235,
  233, 236,
  233, 237,
  233, 239,
  233, 241,
  233, 244,
  233, 245,
  233, 246,
  233, 247,
  233, 249,
  233, 250,
  233, 254,
  233, 255,
  233, 258,
  233, 259,
  233, 264,
  233, 265,
  233, 268,
  233, 269,
  233, 272,
  233, 274,
  233, 277,
  233, 278,
  233, 279,
  233, 284,
  233, 285,
  233, 296,
  233, 298,
  233, 301,
  233, 303,
  233, 304,
  233, 305,
  233, 306,
  233, 310,
  233, 317,
  233, 320,
  233, 321,
  233, 322,
  233, 323,
  233, 326,
  233, 327,
  233, 332,
  233, 335,
  233, 337,
  233, 340,
  233, 342,
  233, 343,
  233, 346,
  233, 352,
  233, 355,
  233, 359,
  233, 361,
  233, 362,
  233, 363,
  233, 365,
  233, 366,
  233, 369,
  233, 370,
  233, 371,
  233, 372,
  233, 373,
  233, 374,
  233, 376,
  233, 378,
  233, 383,
  233, 384,
  233, 385,
  233, 387,
  233, 388,
  233, 389,
  233, 390,
  233, 393,
  233, 394,
  233, 398,
  233, 399,
  233, 400,
  234, 235,
  234, 236,
  234, 240,
  234, 241,
  234, 244,
  234, 246,
  234, 252,
  234, 256,
  234, 258,
  234, 260,
  234, 263,
  234, 264,
  234, 265,
  234, 266,
  234, 267,
  234, 268,
  234, 272,
  234, 273,
  234, 274,
  234, 275,
  234, 277,
  234, 278,
  234, 279,
  234, 281,
  234, 283,
  234, 284,
  234, 285,
  234, 286,
  234, 287,
  234, 291,
  234, 293,
  234, 295,
  234, 297,
  234, 298,
  234, 301,
  234, 302,
  234, 303,
  234, 304,
  234, 306,
  234, 308,
  234, 311,
  234, 312,
  234, 314,
  234, 315,
  234, 316,
  234, 318,
  234, 319,
  234, 320,
  234, 322,
  234, 324,
  234, 328,
  234, 332,
  234, 333,
  234, 337,
  234, 338,
  234, 341,
  234, 344,
  234, 346,
  234, 349,
  234, 352,
  234, 353,
  234, 355,
  234, 360,
  234, 363,
  234, 365,
  234, 366,
  234, 367,
  234, 368,
  234, 369,
  234, 370,
  234, 371,
  234, 373,
  234, 374,
  234, 376,
  234, 377,
  234, 378,
  234, 379,
  234, 385,
  234, 387,
  234, 389,
  234, 390,
  234, 395,
  234, 397,
  234, 398,
  234, 399,
  234, 400,
  235, 237,
  235, 240,
  235, 242,
  235, 243,
  235, 244,
  235, 246,
  235, 249,
  235, 250,
  235, 251,
  235, 254,
  235, 258,
  235, 260,
  235, 263,
  235, 269,
  235, 271,
  235, 272,
  235, 274,
  235, 278,
  235, 281,
  235, 282,
  235, 283,
  235, 285,
  235, 287,
  235, 288,
  235, 290,
  235, 292,
  235, 293,
  235, 294,
  235, 295,
  235, 297,
  235, 298,
  235, 299,
  235, 300,
  235, 302,
  235, 303,
  235, 309,
  235, 310,
  235, 311,
  235, 313,
  235, 316,
  235, 324,
  235, 325,
  235, 326,
  235, 328,
  235, 331,
  235, 333,
  235, 334,
  235, 335,
  235, 338,
  235, 340,
  235, 342,
  235, 343,
  235, 344,
  235, 345,
  235, 346,
  235, 347,
  235, 348,
  235, 352,
  235, 353,
  235, 354,
  235, 356,
  235, 357,
  235, 358,
  235, 359,
  235, 361,
  235, 363,
  235, 364,
  235, 367,
  235, 368,
  235, 373,
  235, 374,
  235, 375,
  235, 383,
  235, 384,
  235, 385,
  235, 388,
  235, 390,
  235, 392,
  235, 393,
  235, 394,
  235, 395,
  235, 396,
  235, 398,
  235, 399,
  236, 237,
  236, 238,
  236, 239,
  236, 240,
  236, 241,
  236, 245,
  236, 246,
  236, 248,
  236, 250,
  236, 251,
  236, 254,
  236, 256,
  236, 257,
  236, 258,
  236, 260,
  236, 261,
  236, 262,
  236, 263,
  236, 264,
  236, 266,
  236, 269,
  236, 270,
  236, 276,
  236, 278,
  236, 279,
  236, 280,
  236, 281,
  236, 282,
  236, 286,
  236, 288,
  236, 289,
  236, 291,
  236, 294,
  236, 295,
  236, 296,
  236, 297,
  236, 299,
  236, 304,
  236, 305,
  236, 308,
  236, 309,
  236, 310,
  236, 313,
  236, 314,
  236, 316,
  236, 318,
  236, 319,
  236, 324,
  236, 326,
  236, 327,
  236, 328,
  236, 329,
  236, 331,
  236, 332,
  236, 336,
  236, 338,
  236, 340,
  236, 343,
  236, 347,
  236, 348,
  236, 351,
  236, 352,
  236, 354,
  236, 355,
  236, 356,
  236, 357,
  236, 359,
  236, 364,
  236, 367,
  236, 370,
  236, 373,
  236, 374,
  236, 375,
  236, 376,
  236, 378,
  236, 381,
  236, 382,
  236, 388,
  236, 390,
  236, 391,
  236, 397,
  236, 398,
  237, 238,
  237, 239,
  237, 242,
  237, 243,
  237, 245,
  237, 248,
  237, 249,
  237, 250,
  237, 252,
  237, 254,
  237, 255,
  237, 256,
  237, 257,
  237, 258,
  237, 260,
  237, 261,
  237, 262,
  237, 263,
  237, 266,
  237, 269,
  237, 271,
  237, 273,
  237, 275,
  237, 277,
  237, 278,
  237, 279,
  237, 281,
  237, 282,
  237, 283,
  237, 286,
  237, 288,
  237, 290,
  237, 297,
  237, 301,
  237, 303,
  237, 304,
  237, 306,
  237, 308,
  237, 310,
  237, 315,
  237, 316,
  237, 317,
  237, 320,
  237, 323,
  237, 326,
  237, 328,
  237, 330,
  237, 332,
  237, 335,
  237, 337,
  237, 339,
  237, 340,
  237, 343,
  237, 345,
  237, 350,
  237, 351,
  237, 352,
  237, 353,
  237, 356,
  237, 357,
  237, 359,
  237, 360,
  237, 365,
  237, 367,
  237, 368,
  237, 369,
  237, 370,
  237, 371,
  237, 372,
  237, 375,
  237, 382,
  237, 383,
  237, 389,
  237, 391,
  237, 392,
  237, 393,
  237, 395,
  237, 397,
  237, 398,
  237, 399,
  238, 239,
  238, 240,
  238, 242,
  238, 244,
  238, 245,
  238, 246,
  238, 247,
  238, 248,
  238, 253,
  238, 254,
  238, 256,
  238, 257,
  238, 261,
  238, 263,
  238, 268,
  238, 269,
  238, 270,
  238, 273,
  238, 274,
  238, 278,
  238, 280,
  238, 282,
  238, 283,
  238, 284,
  238, 287,
  238, 288,
  238, 294,
  238, 296,
  238, 297,
  238, 303,
  238, 305,
  238, 307,
  238, 308,
  238, 309,
  238, 310,
  238, 313,
  238, 314,
  238, 317,
  238, 318,
  238, 319,
  238, 322,
  238, 323,
  238, 328,
  238, 329,
  238, 330,
  238, 331,
  238, 332,
  238, 333,
  238, 334,
  238, 336,
  238, 338,
  238, 340,
  238, 342,
  238, 344,
  238, 345,
  238, 346,
  238, 350,
  238, 351,
  238, 352,
  238, 356,
  238, 358,
  238, 360,
  238, 361,
  238, 363,
  238, 364,
  238, 365,
  238, 366,
  238, 367,
  238, 368,
  238, 370,
  238, 372,
  238, 373,
  238, 374,
  238, 375,
  238, 376,
  238, 380,
  238, 381,
  238, 382,
  238, 383,
  238, 386,
  238, 387,
  238, 393,
  238, 394,
  238, 395,
  238, 396,
  238, 397,
  238, 398,
  238, 400,
  239, 241,
  239, 243,
  239, 247,
  239, 248,
  239, 249,
  239, 250,
  239, 251,
  239, 254,
  239, 256,
  239, 257,
  239, 258,
  239, 260,
  239, 261,
  239, 262,
  239, 263,
  239, 269,
  239, 274,
  239, 276,
  239, 279,
  239, 280,
  239, 282,
  239, 283,
  239, 285,
  239, 286,
  239, 291,
  239, 292,
  239, 293,
  239, 295,
  239, 297,
  239, 298,
  239, 299,
  239, 301,
  239, 303,
  239, 305,
  239, 306,
  239, 311,
  239, 312,
  239, 316,
  239, 319,
  239, 320,
  239, 321,
  239, 322,
  239, 323,
  239, 324,
  239, 325,
  239, 327,
  239, 329,
  239, 330,
  239, 331,
  239, 333,
  239, 335,
  239, 336,
  239, 343,
  239, 344,
  239, 345,
  239, 347,
  239, 348,
  239, 351,
  239, 354,
  239, 355,
  239, 360,
  239, 361,
  239, 362,
  239, 363,
  239, 371,
  239, 373,
  239, 376,
  239, 377,
  239, 378,
  239, 379,
  239, 382,
  239, 383,
  239, 387,
  239, 388,
  239, 390,
  239, 392,
  239, 395,
  239, 400,
  240, 241,
  240, 244,
  240, 248,
  240, 249,
  240, 250,
  240, 251,
  240, 252,
  240, 253,
  240, 255,
  240, 256,
  240, 259,
  240, 260,
  240, 263,
  240, 264,
  240, 266,
  240, 268,
  240, 272,
  240, 273,
  240, 274,
  240, 276,
  240, 283,
  240, 284,
  240, 287,
  240, 288,
  240, 290,
  240, 291,
  240, 295,
  240, 296,
  240, 297,
  240, 299,
  240, 300,
  240, 303,
  240, 304,
  240, 306,
  240, 307,
  240, 308,
  240, 309,
  240, 310,
  240, 311,
  240, 313,
  240, 314,
  240, 316,
  240, 322,
  240, 323,
  240, 324,
  240, 325,
  240, 326,
  240, 327,
  240, 328,
  240, 330,
  240, 333,
  240, 338,
  240, 346,
  240, 347,
  240, 348,
  240, 349,
  240, 351,
  240, 353,
  240, 355,
  240, 360,
  240, 362,
  240, 363,
  240, 365,
  240, 366,
  240, 367,
  240, 369,
  240, 370,
  240, 371,
  240, 375,
  240, 376,
  240, 378,
  240, 379,
  240, 380,
  240, 381,
  240, 382,
  240, 384,
  240, 385,
  240, 386,
  240, 387,
  240, 388,
  240, 389,
  240, 390,
  240, 391,
  240, 394,
  240, 398,
  240, 400,
  241, 246,
  241, 248,
  241, 252,
  241, 256,
  241, 257,
  241, 259,
  241, 260,
  241, 262,
  241, 265,
  241, 267,
  241, 268,
  241, 275,
  241, 277,
  241, 278,
  241, 280,
  241, 281,
  241, 283,
  241, 284,
  241, 285,
  241, 286,
  241, 289,
  241, 290,
  241, 291,
  241, 292,
  241, 293,
  241, 295,
  241, 296,
  241, 297,
  241, 300,
  241, 301,
  241, 302,
  241, 303,
  241, 304,
  241, 305,
  241, 306,
  241, 307,
  241, 308,
  241, 309,
  241, 312,
  241, 314,
  241, 315,
  241, 319,
  241, 320,
  241, 323,
  241, 327,
  241, 328,
  241, 335,
  241, 336,
  241, 338,
  241, 340,
  241, 342,
  241, 343,
  241, 344,
  241, 345,
  241, 346,
  241, 348,
  241, 349,
  241, 351,
  241, 353,
  241, 354,
  241, 355,
  241, 359,
  241, 360,
  241, 361,
  241, 365,
  241, 373,
  241, 374,
  241, 378,
  241, 379,
  241, 381,
  241, 383,
  241, 388,
  241, 389,
  241, 390,
  241, 393,
  241, 394,
  241, 395,
  241, 396,
  241, 398,
  241, 399,
  242, 243,
  242, 244,
  242, 245,
  242, 246,
  242, 247,
  242, 248,
  242, 249,
  242, 251,
  242, 253,
  242, 257,
  242, 258,
  242, 262,
  242, 264,
  242, 266,
  242, 267,
  242, 269,
  242, 272,
  242, 273,
  242, 274,
  242, 276,
  242, 277,
  242, 278,
  242, 281,
  242, 282,
  242, 283,
  242, 286,
  242, 295,
  242, 296,
  242, 299,
  242, 305,
  242, 306,
  242, 308,
  242, 311,
  242, 312,
  242, 314,
  242, 315,
  242, 318,
  242, 321,
  242, 322,
  242, 326,
  242, 329,
  242, 330,
  242, 331,
  242, 335,
  242, 336,
  242, 337,
  242, 340,
  242, 344,
  242, 346,
  242, 348,
  242, 349,
  242, 350,
  242, 353,
  242, 355,
  242, 356,
  242, 357,
  242, 358,
  242, 360,
  242, 362,
  242, 363,
  242, 364,
  242, 365,
  242, 367,
  242, 368,
  242, 371,
  242, 375,
  242, 376,
  242, 377,
  242, 378,
  242, 380,
  242, 382,
  242, 383,
  242, 384,
  242, 386,
  242, 387,
  242, 389,
  242, 390,
  242, 391,
  242, 392,
  242, 393,
  242, 396,
  242, 397,
  242, 398,
  242, 399,
  242, 400,
  243, 244,
  243, 246,
  243, 250,
  243, 253,
  243, 256,
  243, 258,
  243, 259,
  243, 260,
  243, 262,
  243, 263,
  243, 264,
  243, 266,
  243, 268,
  243, 269,
  243, 270,
  243, 271,
  243, 272,
  243, 274,
  243, 284,
  243, 285,
  243, 286,
  243, 287,
  243, 290,
  243, 291,
  243, 296,
  243, 297,
  243, 302,
  243, 303,
  243, 308,
  243, 309,
  243, 310,
  243, 314,
  243, 317,
  243, 318,
  243, 322,
  243, 323,
  243, 324,
  243, 326,
  243, 328,
  243, 329,
  243, 332,
  243, 333,
  243, 335,
  243, 337,
  243, 338,
  243, 339,
  243, 344,
  243, 346,
  243, 347,
  243, 349,
  243, 350,
  243, 351,
  243, 354,
  243, 355,
  243, 358,
  243, 360,
  243, 361,
  243, 362,
  243, 364,
  243, 365,
  243, 367,
  243, 373,
  243, 374,
  243, 375,
  243, 377,
  243, 378,
  243, 379,
  243, 382,
  243, 386,
  243, 387,
  243, 388,
  243, 389,
  243, 390,
  243, 391,
  243, 392,
  243, 393,
  243, 398,
  244, 247,
  244, 249,
  244, 254,
  244, 255,
  244, 257,
  244, 259,
  244, 261,
  244, 262,
  244, 264,
  244, 266,
  244, 269,
  244, 271,
  244, 272,
  244, 273,
  244, 276,
  244, 280,
  244, 282,
  244, 283,
  244, 284,
  244, 288,
  244, 292,
  244, 293,
  244, 294,
  244, 296,
  244, 297,
  244, 299,
  244, 300,
  244, 303,
  244, 304,
  244, 306,
  244, 307,
  244, 309,
  244, 315,
  244, 316,
  244, 319,
  244, 322,
  244, 323,
  244, 324,
  244, 328,
  244, 330,
  244, 331,
  244, 332,
  244, 333,
  244, 336,
  244, 337,
  244, 338,
  244, 339,
  244, 342,
  244, 343,
  244, 349,
  244, 350,
  244, 351,
  244, 353,
  244, 355,
  244, 356,
  244, 357,
  244, 358,
  244, 361,
  244, 362,
  244, 367,
  244, 369,
  244, 371,
  244, 376,
  244, 377,
  244, 378,
  244, 379,
  244, 381,
  244, 382,
  244, 385,
  244, 387,
  244, 389,
  244, 390,
  244, 391,
  244, 392,
  244, 394,
  245, 247,
  245, 250,
  245, 254,
  245, 256,
  245, 259,
  245, 260,
  245, 261,
  245, 262,
  245, 263,
  245, 264,
  245, 265,
  245, 267,
  245, 268,
  245, 271,
  245, 272,
  245, 275,
  245, 279,
  245, 280,
  245, 281,
  245, 283,
  245, 284,
  245, 285,
  245, 287,
  245, 291,
  245, 294,
  245, 295,
  245, 297,
  245, 298,
  245, 300,
  245, 301,
  245, 305,
  245, 306,
  245, 310,
  245, 312,
  245, 313,
  245, 314,
  245, 317,
  245, 318,
  245, 319,
  245, 322,
  245, 324,
  245, 326,
  245, 327,
  245, 328,
  245, 329,
  245, 330,
  245, 332,
  245, 333,
  245, 335,
  245, 337,
  245, 340,
  245, 344,
  245, 345,
  245, 350,
  245, 352,
  245, 353,
  245, 356,
  245, 358,
  245, 361,
  245, 363,
  245, 366,
  245, 367,
  245, 369,
  245, 371,
  245, 372,
  245, 373,
  245, 376,
  245, 377,
  245, 379,
  245, 381,
  245, 382,
  245, 384,
  245, 385,
  245, 386,
  245, 389,
  245, 390,
  245, 391,
  245, 392,
  245, 393,
  245, 394,
  245, 397,
  245, 399,
  245, 400,
  246, 248,
  246, 249,
  246, 250,
  246, 252,
  246, 253,
  246, 254,
  246, 256,
  246, 257,
  246, 258,
  246, 262,
  246, 263,
  246, 266,
  246, 267,
  246, 269,
  246, 270,
  246, 273,
  246, 274,
  246, 278,
  246, 280,
  246, 282,
  246, 283,
  246, 285,
  246, 286,
  246, 287,
  246, 288,
  246, 289,
  246, 292,
  246, 293,
  246, 294,
  246, 298,
  246, 299,
  246, 300,
  246, 303,
  246, 304,
  246, 305,
  246, 309,
  246, 310,
  246, 313,
  246, 315,
  246, 316,
  246, 317,
  246, 318,
  246, 320,
  246, 323,
  246, 325,
  246, 329,
  246, 330,
  246, 331,
  246, 334,
  246, 336,
  246, 337,
  246, 338,
  246, 340,
  246, 341,
  246, 343,
  246, 344,
  246, 345,
  246, 349,
  246, 350,
  246, 351,
  246, 356,
  246, 357,
  246, 360,
  246, 364,
  246, 369,
  246, 370,
  246, 371,
  246, 373,
  246, 374,
  246, 376,
  246, 378,
  246, 379,
  246, 381,
  246, 385,
  246, 387,
  246, 389,
  246, 390,
  246, 392,
  246, 394,
  246, 396,
  247, 248,
  247, 250,
  247, 251,
  247, 252,
  247, 257,
  247, 258,
  247, 259,
  247, 260,
  247, 263,
  247, 266,
  247, 267,
  247, 271,
  247, 272,
  247, 273,
  247, 274,
  247, 275,
  247, 277,
  247, 278,
  247, 280,
  247, 281,
  247, 282,
  247, 283,
  247, 285,
  247, 286,
  247, 287,
  247, 288,
  247, 290,
  247, 292,
  247, 293,
  247, 294,
  247, 297,
  247, 300,
  247, 302,
  247, 305,
  247, 306,
  247, 307,
  247, 310,
  247, 311,
  247, 312,
  247, 313,
  247, 318,
  247, 319,
  247, 320,
  247, 321,
  247, 327,
  247, 328,
  247, 329,
  247, 332,
  247, 333,
  247, 341,
  247, 344,
  247, 345,
  247, 346,
  247, 349,
  247, 352,
  247, 353,
  247, 356,
  247, 357,
  247, 358,
  247, 359,
  247, 360,
  247, 361,
  247, 362,
  247, 363,
  247, 364,
  247, 365,
  247, 366,
  247, 368,
  247, 370,
  247, 371,
  247, 375,
  247, 376,
  247, 377,
  247, 378,
  247, 379,
  247, 380,
  247, 382,
  247, 383,
  247, 384,
  247, 385,
  247, 389,
  247, 390,
  247, 391,
  247, 393,
  247, 394,
  247, 395,
  247, 396,
  248, 251,
  248, 254,
  248, 255,
  248, 258,
  248, 261,
  248, 262,
  248, 266,
  248, 267,
  248, 268,
  248, 269,
  248, 270,
  248, 272,
  248, 273,
  248, 274,
  248, 275,
  248, 276,
  248, 278,
  248, 279,
  248, 281,
  248, 284,
  248, 285,
  248, 288,
  248, 289,
  248, 290,
  248, 291,
  248, 294,
  248, 295,
  248, 296,
  248, 297,
  248, 300,
  248, 301,
  248, 302,
  248, 303,
  248, 306,
  248, 309,
  248, 313,
  248, 315,
  248, 316,
  248, 319,
  248, 320,
  248, 323,
  248, 325,
  248, 327,
  248, 329,
  248, 331,
  248, 334,
  248, 336,
  248, 338,
  248, 339,
  248, 341,
  248, 344,
  248, 345,
  248, 346,
  248, 348,
  248, 349,
  248, 354,
  248, 356,
  248, 359,
  248, 363,
  248, 364,
  248, 365,
  248, 368,
  248, 369,
  248, 371,
  248, 372,
  248, 377,
  248, 378,
  248, 380,
  248, 381,
  248, 383,
  248, 385,
  248, 387,
  248, 388,
  248, 391,
  248, 394,
  248, 398,
  248, 399,
  249, 251,
  249, 252,
  249, 256,
  249, 259,
  249, 260,
  249, 263,
  249, 271,
  249, 273,
  249, 274,
  249, 279,
  249, 281,
  249, 282,
  249, 283,
  249, 284,
  249, 285,
  249, 287,
  249, 288,
  249, 289,
  249, 290,
  249, 291,
  249, 293,
  249, 295,
  249, 297,
  249, 300,
  249, 301,
  249, 302,
  249, 303,
  249, 306,
  249, 311,
  249, 313,
  249, 314,
  249, 322,
  249, 327,
  249, 331,
  249, 333,
  249, 334,
  249, 339,
  249, 340,
  249, 341,
  249, 343,
  249, 344,
  249, 345,
  249, 347,
  249, 350,
  249, 351,
  249, 352,
  249, 356,
  249, 359,
  249, 361,
  249, 362,
  249, 364,
  249, 365,
  249, 366,
  249, 368,
  249, 369,
  249, 372,
  249, 374,
  249, 375,
  249, 378,
  249, 380,
  249, 382,
  249, 383,
  249, 385,
  249, 388,
  249, 390,
  249, 392,
  249, 393,
  249, 395,
  249, 400,
  250, 251,
  250, 253,
  250, 257,
  250, 260,
  250, 263,
  250, 266,
  250, 267,
  250, 271,
  250, 272,
  250, 273,
  250, 276,
  250, 277,
  250, 278,
  250, 279,
  250, 281,
  250, 282,
  250, 283,
  250, 286,
  250, 287,
  250, 288,
  250, 289,
  250, 296,
  250, 297,
  250, 298,
  250, 300,
  250, 301,
  250, 302,
  250, 304,
  250, 305,
  250, 306,
  250, 308,
  250, 310,
  250, 313,
  250, 316,
  250, 318,
  250, 319,
  250, 322,
  250, 323,
  250, 326,
  250, 328,
  250, 329,
  250, 331,
  250, 332,
  250, 333,
  250, 336,
  250, 337,
  250, 338,
  250, 343,
  250, 344,
  250, 346,
  250, 350,
  250, 351,
  250, 357,
  250, 363,
  250, 364,
  250, 365,
  250, 367,
  250, 368,
  250, 369,
  250, 370,
  250, 372,
  250, 375,
  250, 376,
  250, 378,
  250, 381,
  250, 382,
  250, 385,
  250, 386,
  250, 389,
  250, 390,
  250, 391,
  250, 392,
  250, 396,
  250, 397,
  251, 253,
  251, 256,
  251, 257,
  251, 258,
  251, 260,
  251, 261,
  251, 265,
  251, 267,
  251, 270,
  251, 272,
  251, 274,
  251, 275,
  251, 277,
  251, 279,
  251, 280,
  251, 282,
  251, 284,
  251, 285,
  251, 288,
  251, 291,
  251, 292,
  251, 293,
  251, 294,
  251, 295,
  251, 299,
  251, 304,
  251, 305,
  251, 306,
  251, 307,
  251, 310,
  251, 311,
  251, 315,
  251, 318,
  251, 321,
  251, 324,
  251, 326,
  251, 327,
  251, 330,
  251, 332,
  251, 333,
  251, 334,
  251, 337,
  251, 340,
  251, 342,
  251, 348,
  251, 350,
  251, 351,
  251, 353,
  251, 354,
  251, 355,
  251, 359,
  251, 361,
  251, 364,
  251, 365,
  251, 367,
  251, 368,
  251, 369,
  251, 370,
  251, 372,
  251, 373,
  251, 377,
  251, 379,
  251, 382,
  251, 383,
  251, 387,
  251, 388,
  251, 389,
  251, 390,
  251, 391,
  251, 392,
  251, 393,
  251, 395,
  251, 396,
  251, 397,
  251, 400,
  252, 253,
  252, 254,
  252, 255,
  252, 257,
  252, 258,
  252, 259,
  252, 263,
  252, 265,
  252, 266,
  252, 268,
  252, 269,
  252, 275,
  252, 278,
  252, 279,
  252, 280,
  252, 281,
  252, 282,
  252, 286,
  252, 287,
  252, 288,
  252, 289,
  252, 291,
  252, 292,
  252, 294,
  252, 295,
  252, 305,
  252, 306,
  252, 308,
  252, 310,
  252, 311,
  252, 313,
  252, 314,
  252, 315,
  252, 316,
  252, 317,
  252, 318,
  252, 319,
  252, 321,
  252, 323,
  252, 326,
  252, 327,
  252, 328,
  252, 329,
  252, 330,
  252, 336,
  252, 337,
  252, 338,
  252, 339,
  252, 341,
  252, 342,
  252, 345,
  252, 348,
  252, 356,
  252, 358,
  252, 359,
  252, 360,
  252, 362,
  252, 364,
  252, 366,
  252, 367,
  252, 368,
  252, 369,
  252, 370,
  252, 375,
  252, 381,
  252, 385,
  252, 387,
  252, 389,
  252, 394,
  252, 396,
  252, 397,
  253, 254,
  253, 255,
  253, 256,
  253, 257,
  253, 258,
  253, 260,
  253, 261,
  253, 264,
  253, 265,
  253, 266,
  253, 271,
  253, 272,
  253, 273,
  253, 274,
  253, 276,
  253, 278,
  253, 279,
  253, 283,
  253, 286,
  253, 288,
  253, 290,
  253, 291,
  253, 292,
  253, 293,
  253, 294,
  253, 295,
  253, 296,
  253, 300,
  253, 301,
  253, 302,
  253, 304,
  253, 305,
  253, 306,
  253, 307,
  253, 308,
  253, 321,
  253, 322,
  253, 324,
  253, 326,
  253, 328,
  253, 330,
  253, 331,
  253, 333,
  253, 336,
  253, 337,
  253, 341,
  253, 342,
  253, 344,
  253, 345,
  253, 346,
  253, 347,
  253, 352,
  253, 354,
  253, 360,
  253, 365,
  253, 367,
  253, 368,
  253, 369,
  253, 371,
  253, 376,
  253, 377,
  253, 378,
  253, 380,
  253, 385,
  253, 389,
  253, 393,
  253, 394,
  253, 396,
  253, 398,
  254, 257,
  254, 258,
  254, 259,
  254, 260,
  254, 261,
  254, 262,
  254, 266,
  254, 268,
  254, 271,
  254, 272,
  254, 275,
  254, 276,
  254, 277,
  254, 279,
  254, 280,
  254, 281,
  254, 286,
  254, 287,
  254, 291,
  254, 293,
  254, 294,
  254, 295,
  254, 296,
  254, 298,
  254, 301,
  254, 303,
  254, 305,
  254, 308,
  254, 309,
  254, 310,
  254, 312,
  254, 314,
  254, 317,
  254, 318,
  254, 319,
  254, 320,
  254, 323,
  254, 324,
  254, 328,
  254, 331,
  254, 332,
  254, 333,
  254, 334,
  254, 337,
  254, 338,
  254, 339,
  254, 342,
  254, 344,
  254, 346,
  254, 348,
  254, 349,
  254, 357,
  254, 358,
  254, 360,
  254, 361,
  254, 365,
  254, 366,
  254, 367,
  254, 369,
  254, 373,
  254, 375,
  254, 377,
  254, 381,
  254, 382,
  254, 383,
  254, 385,
  254, 386,
  254, 387,
  254, 388,
  254, 389,
  254, 392,
  254, 394,
  254, 398,
  254, 399,
  255, 256,
  255, 257,
  255, 259,
  255, 260,
  255, 262,
  255, 267,
  255, 268,
  255, 271,
  255, 273,
  255, 274,
  255, 275,
  255, 277,
  255, 280,
  255, 282,
  255, 285,
  255, 286,
  255, 288,
  255, 292,
  255, 294,
  255, 301,
  255, 303,
  255, 304,
  255, 305,
  255, 310,
  255, 314,
  255, 315,
  255, 316,
  255, 317,
  255, 318,
  255, 320,
  255, 325,
  255, 326,
  255, 328,
  255, 329,
  255, 330,
  255, 334,
  255, 341,
  255, 342,
  255, 344,
  255, 346,
  255, 347,
  255, 348,
  255, 349,
  255, 350,
  255, 352,
  255, 353,
  255, 355,
  255, 356,
  255, 361,
  255, 362,
  255, 363,
  255, 364,
  255, 366,
  255, 369,
  255, 373,
  255, 374,
  255, 375,
  255, 376,
  255, 377,
  255, 378,
  255, 380,
  255, 382,
  255, 383,
  255, 384,
  255, 385,
  255, 386,
  255, 387,
  255, 388,
  255, 390,
  255, 391,
  255, 394,
  255, 397,
  255, 398,
  255, 400,
  256, 259,
  256, 260,
  256, 263,
  256, 264,
  256, 266,
  256, 267,
  256, 271,
  256, 272,
  256, 273,
  256, 274,
  256, 275,
  256, 277,
  256, 278,
  256, 279,
  256, 281,
  256, 285,
  256, 289,
  256, 290,
  256, 296,
  256, 297,
  256, 298,
  256, 303,
  256, 306,
  256, 307,
  256, 308,
  256, 310,
  256, 312,
  256, 313,
  256, 315,
  256, 316,
  256, 324,
  256, 325,
  256, 335,
  256, 336,
  256, 342,
  256, 345,
  256, 348,
  256, 350,
  256, 352,
  256, 354,
  256, 355,
  256, 356,
  256, 357,
  256, 359,
  256, 361,
  256, 362,
  256, 364,
  256, 367,
  256, 372,
  256, 374,
  256, 376,
  256, 379,
  256, 380,
  256, 382,
  256, 383,
  256, 386,
  256, 387,
  256, 388,
  256, 389,
  256, 391,
  256, 393,
  256, 396,
  256, 398,
  256, 399,
  256, 400,
  257, 262,
  257, 263,
  257, 264,
  257, 266,
  257, 267,
  257, 269,
  257, 270,
  257, 273,
  257, 275,
  257, 278,
  257, 280,
  257, 285,
  257, 286,
  257, 288,
  257, 289,
  257, 290,
  257, 291,
  257, 292,
  257, 299,
  257, 300,
  257, 303,
  257, 304,
  257, 310,
  257, 313,
  257, 315,
  257, 316,
  257, 317,
  257, 318,
  257, 321,
  257, 323,
  257, 324,
  257, 326,
  257, 327,
  257, 329,
  257, 333,
  257, 336,
  257, 337,
  257, 339,
  257, 340,
  257, 341,
  257, 344,
  257, 345,
  257, 346,
  257, 347,
  257, 349,
  257, 351,
  257, 353,
  257, 354,
  257, 357,
  257, 358,
  257, 359,
  257, 365,
  257, 366,
  257, 368,
  257, 369,
  257, 372,
  257, 373,
  257, 375,
  257, 376,
  257, 377,
  257, 382,
  257, 383,
  257, 385,
  257, 386,
  257, 387,
  257, 392,
  257, 396,
  257, 398,
  258, 262,
  258, 264,
  258, 267,
  258, 268,
  258, 269,
  258, 271,
  258, 272,
  258, 274,
  258, 277,
  258, 278,
  258, 284,
  258, 285,
  258, 286,
  258, 288,
  258, 292,
  258, 294,
  258, 298,
  258, 299,
  258, 303,
  258, 310,
  258, 314,
  258, 317,
  258, 321,
  258, 322,
  258, 324,
  258, 326,
  258, 327,
  258, 328,
  258, 329,
  258, 330,
  258, 331,
  258, 333,
  258, 334,
  258, 340,
  258, 346,
  258, 347,
  258, 348,
  258, 350,
  258, 352,
  258, 355,
  258, 357,
  258, 359,
  258, 361,
  258, 362,
  258, 365,
  258, 366,
  258, 367,
  258, 368,
  258, 369,
  258, 371,
  258, 375,
  258, 376,
  258, 377,
  258, 378,
  258, 379,
  258, 380,
  258, 381,
  258, 383,
  258, 385,
  258, 390,
  258, 391,
  258, 392,
  258, 396,
  258, 397,
  259, 260,
  259, 262,
  259, 263,
  259, 268,
  259, 269,
  259, 273,
  259, 276,
  259, 278,
  259, 279,
  259, 280,
  259, 281,
  259, 283,
  259, 284,
  259, 285,
  259, 286,
  259, 289,
  259, 292,
  259, 293,
  259, 294,
  259, 295,
  259, 296,
  259, 298,
  259, 300,
  259, 303,
  259, 304,
  259, 306,
  259, 312,
  259, 314,
  259, 316,
  259, 317,
  259, 318,
  259, 321,
  259, 323,
  259, 324,
  259, 327,
  259, 329,
  259, 333,
  259, 335,
  259, 337,
  259, 343,
  259, 344,
  259, 350,
  259, 351,
  259, 352,
  259, 353,
  259, 354,
  259, 355,
  259, 356,
  259, 357,
  259, 368,
  259, 370,
  259, 372,
  259, 373,
  259, 374,
  259, 376,
  259, 377,
  259, 379,
  259, 381,
  259, 382,
  259, 384,
  259, 388,
  259, 389,
  259, 390,
  259, 391,
  259, 392,
  259, 393,
  259, 399,
  260, 263,
  260, 264,
  260, 265,
  260, 268,
  260, 269,
  260, 270,
  260, 272,
  260, 275,
  260, 277,
  260, 278,
  260, 279,
  260, 280,
  260, 281,
  260, 283,
  260, 286,
  260, 287,
  260, 288,
  260, 289,
  260, 293,
  260, 294,
  260, 295,
  260, 296,
  260, 298,
  260, 300,
  260, 302,
  260, 303,
  260, 305,
  260, 307,
  260, 308,
  260, 309,
  260, 310,
  260, 311,
  260, 316,
  260, 317,
  260, 319,
  260, 321,
  260, 322,
  260, 323,
  260, 324,
  260, 326,
  260, 328,
  260, 329,
  260, 330,
  260, 331,
  260, 336,
  260, 339,
  260, 341,
  260, 342,
  260, 344,
  260, 345,
  260, 346,
  260, 347,
  260, 349,
  260, 350,
  260, 352,
  260, 353,
  260, 357,
  260, 359,
  260, 363,
  260, 364,
  260, 365,
  260, 370,
  260, 371,
  260, 372,
  260, 373,
  260, 374,
  260, 376,
  260, 378,
  260, 386,
  260, 387,
  260, 390,
  260, 394,
  260, 395,
  260, 396,
  260, 399,
  261, 262,
  261, 264,
  261, 268,
  261, 269,
  261, 270,
  261, 273,
  261, 276,
  261, 277,
  261, 278,
  261, 279,
  261, 280,
  261, 290,
  261, 291,
  261, 292,
  261, 294,
  261, 295,
  261, 299,
  261, 300,
  261, 301,
  261, 303,
  261, 304,
  261, 305,
  261, 306,
  261, 307,
  261, 308,
  261, 310,
  261, 314,
  261, 315,
  261, 316,
  261, 317,
  261, 320,
  261, 322,
  261, 323,
  261, 326,
  261, 329,
  261, 332,
  261, 333,
  261, 335,
  261, 338,
  261, 342,
  261, 343,
  261, 346,
  261, 348,
  261, 349,
  261, 351,
  261, 352,
  261, 353,
  261, 355,
  261, 356,
  261, 357,
  261, 361,
  261, 362,
  261, 363,
  261, 364,
  261, 365,
  261, 366,
  261, 370,
  261, 371,
  261, 372,
  261, 373,
  261, 377,
  261, 378,
  261, 382,
  261, 383,
  261, 387,
  261, 389,
  261, 391,
  261, 392,
  261, 393,
  261, 395,
  261, 397,
  261, 398,
  261, 400,
  262, 263,
  262, 264,
  262, 269,
  262, 271,
  262, 272,
  262, 275,
  262, 276,
  262, 278,
  262, 279,
  262, 280,
  262, 283,
  262, 285,
  262, 289,
  262, 290,
  262, 291,
  262, 292,
  262, 294,
  262, 295,
  262, 298,
  262, 300,
  262, 303,
  262, 306,
  262, 310,
  262, 311,
  262, 312,
  262, 313,
  262, 314,
  262, 315,
  262, 318,
  262, 320,
  262, 324,
  262, 329,
  262, 330,
  262, 333,
  262, 334,
  262, 335,
  262, 336,
  262, 337,
  262, 338,
  262, 339,
  262, 340,
  262, 343,
  262, 346,
  262, 353,
  262, 357,
  262, 360,
  262, 361,
  262, 364,
  262, 365,
  262, 366,
  262, 367,
  262, 368,
  262, 369,
  262, 370,
  262, 371,
  262, 373,
  262, 377,
  262, 379,
  262, 380,
  262, 381,
  262, 385,
  262, 390,
  262, 393,
  262, 396,
  262, 397,
  262, 399,
  262, 400,
  263, 265,
  263, 266,
  263, 267,
  263, 269,
  263, 272,
  263, 274,
  263, 275,
  263, 276,
  263, 277,
  263, 280,
  263, 281,
  263, 282,
  263, 283,
  263, 284,
  263, 286,
  263, 287,
  263, 289,
  263, 291,
  263, 294,
  263, 295,
  263, 297,
  263, 298,
  263, 299,
  263, 301,
  263, 302,
  263, 304,
  263, 305,
  263, 307,
  263, 308,
  263, 312,
  263, 313,
  263, 319,
  263, 320,
  263, 321,
  263, 323,
  263, 329,
  263, 331,
  263, 332,
  263, 333,
  263, 334,
  263, 335,
  263, 336,
  263, 339,
  263, 340,
  263, 341,
  263, 343,
  263, 344,
  263, 345,
  263, 346,
  263, 347,
  263, 348,
  263, 349,
  263, 350,
  263, 351,
  263, 354,
  263, 358,
  263, 359,
  263, 361,
  263, 363,
  263, 364,
  263, 365,
  263, 367,
  263, 370,
  263, 372,
  263, 374,
  263, 378,
  263, 381,
  263, 383,
  263, 384,
  263, 387,
  263, 389,
  263, 390,
  263, 391,
  263, 392,
  263, 393,
  263, 394,
  263, 399,
  263, 400,
  264, 269,
  264, 270,
  264, 273,
  264, 274,
  264, 277,
  264, 278,
  264, 279,
  264, 280,
  264, 281,
  264, 284,
  264, 287,
  264, 288,
  264, 289,
  264, 291,
  264, 293,
  264, 294,
  264, 295,
  264, 296,
  264, 297,
  264, 299,
  264, 300,
  264, 301,
  264, 302,
  264, 303,
  264, 305,
  264, 306,
  264, 307,
  264, 308,
  264, 310,
  264, 312,
  264, 313,
  264, 314,
  264, 315,
  264, 316,
  264, 317,
  264, 319,
  264, 325,
  264, 330,
  264, 333,
  264, 334,
  264, 335,
  264, 337,
  264, 338,
  264, 339,
  264, 340,
  264, 345,
  264, 346,
  264, 347,
  264, 350,
  264, 353,
  264, 357,
  264, 358,
  264, 360,
  264, 362,
  264, 363,
  264, 364,
  264, 370,
  264, 371,
  264, 380,
  264, 381,
  264, 382,
  264, 385,
  264, 386,
  264, 388,
  264, 389,
  264, 390,
  264, 393,
  264, 394,
  264, 397,
  264, 400,
  265, 270,
  265, 273,
  265, 275,
  265, 276,
  265, 278,
  265, 282,
  265, 286,
  265, 287,
  265, 288,
  265, 289,
  265, 291,
  265, 298,
  265, 299,
  265, 300,
  265, 301,
  265, 302,
  265, 303,
  265, 304,
  265, 305,
  265, 306,
  265, 307,
  265, 308,
  265, 310,
  265, 318,
  265, 320,
  265, 323,
  265, 325,
  265, 326,
  265, 328,
  265, 329,
  265, 332,
  265, 335,
  265, 336,
  265, 337,
  265, 343,
  265, 344,
  265, 345,
  265, 347,
  265, 348,
  265, 351,
  265, 354,
  265, 355,
  265, 356,
  265, 359,
  265, 362,
  265, 366,
  265, 367,
  265, 368,
  265, 371,
  265, 372,
  265, 373,
  265, 374,
  265, 375,
  265, 376,
  265, 379,
  265, 381,
  265, 383,
  265, 386,
  265, 388,
  265, 391,
  265, 392,
  265, 394,
  265, 397,
  266, 269,
  266, 270,
  266, 271,
  266, 272,
  266, 275,
  266, 276,
  266, 279,
  266, 284,
  266, 286,
  266, 290,
  266, 291,
  266, 292,
  266, 293,
  266, 294,
  266, 296,
  266, 299,
  266, 301,
  266, 306,
  266, 307,
  266, 308,
  266, 309,
  266, 312,
  266, 313,
  266, 320,
  266, 321,
  266, 322,
  266, 324,
  266, 328,
  266, 331,
  266, 334,
  266, 336,
  266, 338,
  266, 340,
  266, 341,
  266, 343,
  266, 346,
  266, 347,
  266, 354,
  266, 358,
  266, 359,
  266, 362,
  266, 363,
  266, 365,
  266, 367,
  266, 368,
  266, 369,
  266, 370,
  266, 371,
  266, 372,
  266, 374,
  266, 376,
  266, 377,
  266, 381,
  266, 382,
  266, 386,
  266, 388,
  266, 389,
  266, 398,
  266, 399,
  267, 268,
  267, 272,
  267, 273,
  267, 274,
  267, 275,
  267, 276,
  267, 277,
  267, 279,
  267, 281,
  267, 282,
  267, 283,
  267, 284,
  267, 285,
  267, 286,
  267, 288,
  267, 289,
  267, 290,
  267, 292,
  267, 294,
  267, 295,
  267, 296,
  267, 297,
  267, 298,
  267, 299,
  267, 300,
  267, 301,
  267, 304,
  267, 305,
  267, 314,
  267, 315,
  267, 320,
  267, 321,
  267, 327,
  267, 330,
  267, 331,
  267, 333,
  267, 334,
  267, 340,
  267, 342,
  267, 343,
  267, 344,
  267, 345,
  267, 348,
  267, 351,
  267, 352,
  267, 353,
  267, 354,
  267, 355,
  267, 356,
  267, 359,
  267, 363,
  267, 364,
  267, 366,
  267, 369,
  267, 370,
  267, 371,
  267, 372,
  267, 373,
  267, 384,
  267, 385,
  267, 388,
  267, 393,
  267, 397,
  268, 269,
  268, 270,
  268, 272,
  268, 273,
  268, 274,
  268, 275,
  268, 277,
  268, 278,
  268, 280,
  268, 281,
  268, 282,
  268, 283,
  268, 284,
  268, 285,
  268, 286,
  268, 287,
  268, 288,
  268, 292,
  268, 294,
  268, 296,
  268, 301,
  268, 302,
  268, 303,
  268, 307,
  268, 309,
  268, 310,
  268, 311,
  268, 312,
  268, 313,
  268, 314,
  268, 315,
  268, 319,
  268, 322,
  268, 323,
  268, 324,
  268, 327,
  268, 330,
  268, 331,
  268, 332,
  268, 335,
  268, 341,
  268, 342,
  268, 345,
  268, 346,
  268, 348,
  268, 349,
  268, 354,
  268, 355,
  268, 358,
  268, 361,
  268, 362,
  268, 363,
  268, 364,
  268, 366,
  268, 367,
  268, 368,
  268, 369,
  268, 370,
  268, 371,
  268, 373,
  268, 374,
  268, 378,
  268, 379,
  268, 380,
  268, 382,
  268, 383,
  268, 384,
  268, 386,
  268, 388,
  268, 392,
  268, 393,
  268, 395,
  268, 396,
  268, 398,
  269, 270,
  269, 272,
  269, 273,
  269, 275,
  269, 276,
  269, 284,
  269, 285,
  269, 286,
  269, 287,
  269, 288,
  269, 290,
  269, 292,
  269, 295,
  269, 296,
  269, 298,
  269, 299,
  269, 300,
  269, 301,
  269, 303,
  269, 306,
  269, 309,
  269, 311,
  269, 312,
  269, 313,
  269, 315,
  269, 316,
  269, 317,
  269, 318,
  269, 322,
  269, 323,
  269, 325,
  269, 326,
  269, 327,
  269, 329,
  269, 331,
  269, 332,
  269, 333,
  269, 336,
  269, 340,
  269, 341,
  269, 342,
  269, 346,
  269, 350,
  269, 351,
  269, 354,
  269, 358,
  269, 359,
  269, 362,
  269, 366,
  269, 369,
  269, 371,
  269, 374,
  269, 376,
  269, 377,
  269, 380,
  269, 382,
  269, 384,
  269, 385,
  269, 387,
  269, 389,
  269, 390,
  269, 391,
  269, 393,
  269, 395,
  269, 400,
  270, 272,
  270, 273,
  270, 276,
  270, 278,
  270, 279,
  270, 283,
  270, 284,
  270, 288,
  270, 289,
  270, 292,
  270, 293,
  270, 295,
  270, 300,
  270, 301,
  270, 304,
  270, 305,
  270, 306,
  270, 307,
  270, 308,
  270, 310,
  270, 311,
  270, 313,
  270, 314,
  270, 316,
  270, 318,
  270, 319,
  270, 320,
  270, 322,
  270, 324,
  270, 325,
  270, 328,
  270, 333,
  270, 335,
  270, 339,
  270, 342,
  270, 345,
  270, 347,
  270, 348,
  270, 352,
  270, 355,
  270, 357,
  270, 360,
  270, 361,
  270, 362,
  270, 363,
  270, 364,
  270, 365,
  270, 367,
  270, 376,
  270, 378,
  270, 379,
  270, 381,
  270, 384,
  270, 385,
  270, 388,
  270, 389,
  270, 391,
  270, 392,
  270, 399,
  271, 273,
  271, 274,
  271, 275,
  271, 276,
  271, 277,
  271, 278,
  271, 279,
  271, 283,
  271, 289,
  271, 294,
  271, 297,
  271, 298,
  271, 299,
  271, 300,
  271, 302,
  271, 303,
  271, 304,
  271, 305,
  271, 306,
  271, 308,
  271, 310,
  271, 311,
  271, 313,
  271, 314,
  271, 315,
  271, 320,
  271, 321,
  271, 324,
  271, 325,
  271, 328,
  271, 329,
  271, 330,
  271, 332,
  271, 334,
  271, 337,
  271, 342,
  271, 350,
  271, 353,
  271, 354,
  271, 355,
  271, 356,
  271, 357,
  271, 363,
  271, 364,
  271, 365,
  271, 368,
  271, 369,
  271, 370,
  271, 372,
  271, 375,
  271, 381,
  271, 383,
  271, 384,
  271, 392,
  271, 393,
  271, 397,
  271, 398,
  272, 273,
  272, 276,
  272, 278,
  272, 279,
  272, 280,
  272, 281,
  272, 285,
  272, 288,
  272, 290,
  272, 291,
  272, 293,
  272, 294,
  272, 297,
  272, 299,
  272, 303,
  272, 306,
  272, 311,
  272, 313,
  272, 314,
  272, 317,
  272, 318,
  272, 320,
  272, 322,
  272, 323,
  272, 326,
  272, 328,
  272, 332,
  272, 333,
  272, 335,
  272, 338,
  272, 342,
  272, 343,
  272, 344,
  272, 352,
  272, 354,
  272, 357,
  272, 363,
  272, 366,
  272, 368,
  272, 369,
  272, 371,
  272, 376,
  272, 377,
  272, 378,
  272, 381,
  272, 383,
  272, 384,
  272, 386,
  272, 387,
  272, 390,
  272, 393,
  272, 397,
  272, 398,
  272, 399,
  272, 400,
  273, 274,
  273, 278,
  273, 279,
  273, 282,
  273, 288,
  273, 290,
  273, 293,
  273, 294,
  273, 297,
  273, 298,
  273, 299,
  273, 302,
  273, 304,
  273, 306,
  273, 308,
  273, 309,
  273, 311,
  273, 312,
  273, 313,
  273, 315,
  273, 320,
  273, 322,
  273, 324,
  273, 327,
  273, 328,
  273, 329,
  273, 331,
  273, 336,
  273, 339,
  273, 340,
  273, 341,
  273, 342,
  273, 343,
  273, 346,
  273, 347,
  273, 351,
  273, 352,
  273, 354,
  273, 358,
  273, 359,
  273, 361,
  273, 363,
  273, 364,
  273, 365,
  273, 368,
  273, 369,
  273, 370,
  273, 373,
  273, 374,
  273, 375,
  273, 381,
  273, 383,
  273, 385,
  273, 386,
  273, 387,
  273, 388,
  273, 389,
  273, 390,
  273, 391,
  273, 393,
  273, 394,
  273, 395,
  273, 396,
  273, 398,
  273, 400,
  274, 276,
  274, 278,
  274, 280,
  274, 281,
  274, 282,
  274, 285,
  274, 286,
  274, 288,
  274, 289,
  274, 291,
  274, 294,
  274, 295,
  274, 297,
  274, 300,
  274, 301,
  274, 302,
  274, 307,
  274, 309,
  274, 312,
  274, 315,
  274, 316,
  274, 317,
  274, 318,
  274, 323,
  274, 327,
  274, 328,
  274, 331,
  274, 332,
  274, 334,
  274, 335,
  274, 336,
  274, 337,
  274, 338,
  274, 341,
  274, 343,
  274, 344,
  274, 345,
  274, 346,
  274, 353,
  274, 354,
  274, 355,
  274, 356,
  274, 358,
  274, 360,
  274, 361,
  274, 363,
  274, 365,
  274, 370,
  274, 371,
  274, 372,
  274, 375,
  274, 377,
  274, 381,
  274, 382,
  274, 388,
  274, 389,
  274, 390,
  274, 392,
  274, 394,
  274, 395,
  274, 396,
  274, 399,
  275, 277,
  275, 278,
  275, 280,
  275, 282,
  275, 283,
  275, 286,
  275, 287,
  275, 290,
  275, 292,
  275, 293,
  275, 296,
  275, 297,
  275, 299,
  275, 301,
  275, 304,
  275, 306,
  275, 307,
  275, 309,
  275, 310,
  275, 312,
  275, 314,
  275, 315,
  275, 317,
  275, 319,
  275, 324,
  275, 325,
  275, 331,
  275, 332,
  275, 340,
  275, 341,
  275, 342,
  275, 343,
  275, 344,
  275, 345,
  275, 346,
  275, 347,
  275, 348,
  275, 349,
  275, 351,
  275, 352,
  275, 353,
  275, 355,
  275, 357,
  275, 366,
  275, 367,
  275, 369,
  275, 374,
  275, 377,
  275, 381,
  275, 382,
  275, 383,
  275, 384,
  275, 387,
  275, 388,
  275, 389,
  275, 390,
  275, 391,
  275, 393,
  275, 395,
  275, 398,
  276, 277,
  276, 278,
  276, 285,
  276, 291,
  276, 293,
  276, 294,
  276, 295,
  276, 296,
  276, 297,
  276, 301,
  276, 303,
  276, 305,
  276, 307,
  276, 308,
  276, 309,
  276, 312,
  276, 313,
  276, 316,
  276, 318,
  276, 322,
  276, 323,
  276, 326,
  276, 328,
  276, 329,
  276, 330,
  276, 332,
  276, 333,
  276, 335,
  276, 337,
  276, 342,
  276, 345,
  276, 346,
  276, 349,
  276, 350,
  276, 351,
  276, 352,
  276, 353,
  276, 354,
  276, 356,
  276, 358,
  276, 359,
  276, 360,
  276, 364,
  276, 369,
  276, 370,
  276, 372,
  276, 373,
  276, 375,
  276, 376,
  276, 378,
  276, 379,
  276, 382,
  276, 383,
  276, 384,
  276, 385,
  276, 387,
  276, 390,
  276, 391,
  276, 392,
  276, 394,
  276, 396,
  276, 397,
  276, 399,
  277, 279,
  277, 280,
  277, 284,
  277, 285,
  277, 286,
  277, 289,
  277, 291,
  277, 292,
  277, 298,
  277, 302,
  277, 303,
  277, 304,
  277, 305,
  277, 306,
  277, 309,
  277, 311,
  277, 312,
  277, 314,
  277, 316,
  277, 317,
  277, 320,
  277, 321,
  277, 322,
  277, 325,
  277, 326,
  277, 329,
  277, 331,
  277, 337,
  277, 338,
  277, 344,
  277, 346,
  277, 348,
  277, 349,
  277, 350,
  277, 352,
  277, 353,
  277, 354,
  277, 356,
  277, 357,
  277, 360,
  277, 362,
  277, 363,
  277, 364,
  277, 367,
  277, 370,
  277, 373,
  277, 377,
  277, 378,
  277, 381,
  277, 382,
  277, 384,
  277, 385,
  277, 387,
  277, 388,
  277, 390,
  277, 391,
  277, 393,
  277, 396,
  277, 398,
  278, 279,
  278, 281,
  278, 284,
  278, 285,
  278, 286,
  278, 288,
  278, 290,
  278, 291,
  278, 295,
  278, 296,
  278, 297,
  278, 299,
  278, 302,
  278, 303,
  278, 312,
  278, 314,
  278, 316,
  278, 318,
  278, 320,
  278, 321,
  278, 322,
  278, 324,
  278, 325,
  278, 326,
  278, 327,
  278, 328,
  278, 330,
  278, 331,
  278, 332,
  278, 333,
  278, 334,
  278, 338,
  278, 341,
  278, 347,
  278, 349,
  278, 350,
  278, 351,
  278, 352,
  278, 354,
  278, 355,
  278, 356,
  278, 358,
  278, 359,
  278, 361,
  278, 364,
  278, 365,
  278, 366,
  278, 368,
  278, 369,
  278, 371,
  278, 372,
  278, 373,
  278, 376,
  278, 382,
  278, 383,
  278, 384,
  278, 385,
  278, 388,
  278, 390,
  278, 394,
  278, 395,
  278, 398,
  278, 399,
  279, 280,
  279, 282,
  279, 283,
  279, 285,
  279, 287,
  279, 288,
  279, 291,
  279, 292,
  279, 297,
  279, 298,
  279, 301,
  279, 304,
  279, 308,
  279, 310,
  279, 312,
  279, 313,
  279, 316,
  279, 317,
  279, 319,
  279, 321,
  279, 323,
  279, 324,
  279, 328,
  279, 330,
  279, 334,
  279, 336,
  279, 338,
  279, 340,
  279, 342,
  279, 344,
  279, 345,
  279, 347,
  279, 348,
  279, 351,
  279, 355,
  279, 359,
  279, 360,
  279, 361,
  279, 362,
  279, 363,
  279, 366,
  279, 367,
  279, 368,
  279, 369,
  279, 370,
  279, 371,
  279, 372,
  279, 375,
  279, 379,
  279, 381,
  279, 382,
  279, 384,
  279, 388,
  279, 389,
  279, 391,
  279, 392,
  279, 394,
  279, 395,
  279, 396,
  279, 397,
  279, 398,
  280, 286,
  280, 288,
  280, 293,
  280, 294,
  280, 295,
  280, 297,
  280, 302,
  280, 304,
  280, 305,
  280, 307,
  280, 310,
  280, 311,
  280, 312,
  280, 313,
  280, 315,
  280, 317,
  280, 318,
  280, 319,
  280, 320,
  280, 324,
  280, 326,
  280, 327,
  280, 330,
  280, 331,
  280, 333,
  280, 334,
  280, 338,
  280, 339,
  280, 340,
  280, 341,
  280, 342,
  280, 343,
  280, 344,
  280, 345,
  280, 348,
  280, 350,
  280, 351,
  280, 353,
  280, 357,
  280, 358,
  280, 362,
  280, 363,
  280, 364,
  280, 366,
  280, 368,
  280, 369,
  280, 370,
  280, 371,
  280, 374,
  280, 376,
  280, 377,
  280, 379,
  280, 380,
  280, 381,
  280, 386,
  280, 388,
  280, 390,
  280, 393,
  280, 394,
  280, 396,
  280, 399,
  281, 285,
  281, 286,
  281, 287,
  281, 289,
  281, 290,
  281, 294,
  281, 295,
  281, 296,
  281, 298,
  281, 299,
  281, 300,
  281, 301,
  281, 307,
  281, 309,
  281, 311,
  281, 312,
  281, 315,
  281, 316,
  281, 317,
  281, 318,
  281, 322,
  281, 323,
  281, 324,
  281, 326,
  281, 328,
  281, 329,
  281, 330,
  281, 331,
  281, 332,
  281, 333,
  281, 334,
  281, 335,
  281, 336,
  281, 337,
  281, 338,
  281, 339,
  281, 340,
  281, 343,
  281, 347,
  281, 348,
  281, 350,
  281, 353,
  281, 356,
  281, 361,
  281, 362,
  281, 363,
  281, 364,
  281, 366,
  281, 367,
  281, 370,
  281, 374,
  281, 378,
  281, 380,
  281, 381,
  281, 382,
  281, 383,
  281, 385,
  281, 390,
  281, 394,
  281, 396,
  281, 398,
  281, 399,
  282, 287,
  282, 290,
  282, 291,
  282, 292,
  282, 294,
  282, 298,
  282, 300,
  282, 302,
  282, 306,
  282, 307,
  282, 309,
  282, 310,
  282, 312,
  282, 315,
  282, 316,
  282, 319,
  282, 321,
  282, 325,
  282, 327,
  282, 332,
  282, 334,
  282, 336,
  282, 337,
  282, 338,
  282, 339,
  282, 340,
  282, 341,
  282, 342,
  282, 344,
  282, 345,
  282, 346,
  282, 349,
  282, 352,
  282, 353,
  282, 354,
  282, 355,
  282, 356,
  282, 358,
  282, 360,
  282, 361,
  282, 364,
  282, 365,
  282, 366,
  282, 369,
  282, 370,
  282, 371,
  282, 374,
  282, 377,
  282, 378,
  282, 380,
  282, 381,
  282, 386,
  282, 387,
  282, 390,
  282, 391,
  282, 392,
  282, 393,
  282, 395,
  282, 397,
  282, 399,
  283, 284,
  283, 286,
  283, 290,
  283, 292,
  283, 293,
  283, 296,
  283, 297,
  283, 299,
  283, 301,
  283, 302,
  283, 304,
  283, 305,
  283, 308,
  283, 310,
  283, 317,
  283, 318,
  283, 322,
  283, 324,
  283, 325,
  283, 327,
  283, 329,
  283, 330,
  283, 333,
  283, 334,
  283, 336,
  283, 339,
  283, 341,
  283, 342,
  283, 343,
  283, 346,
  283, 347,
  283, 348,
  283, 349,
  283, 351,
  283, 353,
  283, 354,
  283, 355,
  283, 356,
  283, 362,
  283, 364,
  283, 365,
  283, 367,
  283, 373,
  283, 379,
  283, 380,
  283, 382,
  283, 384,
  283, 385,
  283, 388,
  283, 392,
  283, 393,
  283, 394,
  283, 399,
  284, 285,
  284, 286,
  284, 288,
  284, 291,
  284, 292,
  284, 293,
  284, 294,
  284, 296,
  284, 297,
  284, 298,
  284, 299,
  284, 303,
  284, 304,
  284, 305,
  284, 307,
  284, 309,
  284, 311,
  284, 312,
  284, 313,
  284, 314,
  284, 315,
  284, 318,
  284, 319,
  284, 326,
  284, 331,
  284, 333,
  284, 340,
  284, 343,
  284, 345,
  284, 346,
  284, 348,
  284, 349,
  284, 351,
  284, 352,
  284, 353,
  284, 356,
  284, 358,
  284, 359,
  284, 360,
  284, 362,
  284, 365,
  284, 366,
  284, 368,
  284, 370,
  284, 373,
  284, 374,
  284, 375,
  284, 376,
  284, 379,
  284, 380,
  284, 381,
  284, 388,
  284, 389,
  284, 390,
  284, 391,
  284, 392,
  284, 394,
  284, 399,
  285, 286,
  285, 289,
  285, 292,
  285, 295,
  285, 298,
  285, 299,
  285, 300,
  285, 303,
  285, 307,
  285, 308,
  285, 310,
  285, 312,
  285, 317,
  285, 320,
  285, 322,
  285, 323,
  285, 324,
  285, 327,
  285, 329,
  285, 333,
  285, 334,
  285, 335,
  285, 336,
  285, 339,
  285, 342,
  285, 343,
  285, 348,
  285, 349,
  285, 353,
  285, 354,
  285, 355,
  285, 358,
  285, 360,
  285, 361,
  285, 362,
  285, 368,
  285, 369,
  285, 370,
  285, 371,
  285, 373,
  285, 374,
  285, 375,
  285, 376,
  285, 378,
  285, 380,
  285, 382,
  285, 383,
  285, 384,
  285, 385,
  285, 386,
  285, 388,
  285, 389,
  285, 390,
  285, 391,
  285, 392,
  285, 394,
  285, 395,
  285, 397,
  285, 398,
  285, 399,
  285, 400,
  286, 287,
  286, 288,
  286, 290,
  286, 292,
  286, 294,
  286, 296,
  286, 297,
  286, 298,
  286, 300,
  286, 305,
  286, 306,
  286, 309,
  286, 310,
  286, 311,
  286, 314,
  286, 315,
  286, 316,
  286, 318,
  286, 319,
  286, 320,
  286, 322,
  286, 326,
  286, 327,
  286, 333,
  286, 335,
  286, 336,
  286, 338,
  286, 339,
  286, 340,
  286, 341,
  286, 347,
  286, 351,
  286, 352,
  286, 354,
  286, 355,
  286, 359,
  286, 360,
  286, 362,
  286, 363,
  286, 364,
  286, 366,
  286, 367,
  286, 370,
  286, 372,
  286, 373,
  286, 376,
  286, 377,
  286, 383,
  286, 385,
  286, 387,
  286, 388,
  286, 389,
  286, 390,
  286, 392,
  286, 393,
  286, 395,
  286, 396,
  286, 397,
  286, 399,
  287, 290,
  287, 292,
  287, 294,
  287, 299,
  287, 300,
  287, 301,
  287, 307,
  287, 309,
  287, 310,
  287, 311,
  287, 312,
  287, 314,
  287, 317,
  287, 318,
  287, 319,
  287, 320,
  287, 321,
  287, 322,
  287, 327,
  287, 330,
  287, 333,
  287, 334,
  287, 335,
  287, 336,
  287, 337,
  287, 340,
  287, 343,
  287, 344,
  287, 346,
  287, 347,
  287, 348,
  287, 349,
  287, 351,
  287, 354,
  287, 355,
  287, 358,
  287, 359,
  287, 362,
  287, 364,
  287, 365,
  287, 366,
  287, 367,
  287, 369,
  287, 370,
  287, 373,
  287, 374,
  287, 375,
  287, 378,
  287, 382,
  287, 383,
  287, 386,
  287, 390,
  287, 391,
  287, 393,
  287, 399,
  287, 400,
  288, 290,
  288, 291,
  288, 292,
  288, 293,
  288, 298,
  288, 300,
  288, 304,
  288, 307,
  288, 309,
  288, 311,
  288, 312,
  288, 313,
  288, 316,
  288, 317,
  288, 318,
  288, 320,
  288, 322,
  288, 324,
  288, 326,
  288, 329,
  288, 330,
  288, 333,
  288, 336,
  288, 337,
  288, 338,
  288, 340,
  288, 341,
  288, 342,
  288, 344,
  288, 345,
  288, 347,
  288, 348,
  288, 349,
  288, 352,
  288, 353,
  288, 356,
  288, 358,
  288, 362,
  288, 365,
  288, 366,
  288, 370,
  288, 371,
  288, 373,
  288, 374,
  288, 375,
  288, 376,
  288, 378,
  288, 380,
  288, 385,
  288, 388,
  288, 389,
  288, 391,
  288, 399,
  289, 292,
  289, 294,
  289, 296,
  289, 298,
  289, 300,
  289, 303,
  289, 304,
  289, 305,
  289, 308,
  289, 309,
  289, 313,
  289, 314,
  289, 316,
  289, 317,
  289, 320,
  289, 321,
  289, 322,
  289, 323,
  289, 324,
  289, 325,
  289, 326,
  289, 328,
  289, 335,
  289, 340,
  289, 341,
  289, 342,
  289, 343,
  289, 344,
  289, 345,
  289, 346,
  289, 348,
  289, 351,
  289, 352,
  289, 355,
  289, 357,
  289, 361,
  289, 362,
  289, 363,
  289, 364,
  289, 365,
  289, 366,
  289, 367,
  289, 368,
  289, 369,
  289, 372,
  289, 378,
  289, 379,
  289, 380,
  289, 383,
  289, 385,
  289, 387,
  289, 388,
  289, 391,
  289, 393,
  289, 394,
  289, 395,
  289, 397,
  289, 398,
  289, 400,
  290, 291,
  290, 298,
  290, 301,
  290, 302,
  290, 303,
  290, 304,
  290, 305,
  290, 307,
  290, 308,
  290, 311,
  290, 314,
  290, 315,
  290, 316,
  290, 320,
  290, 322,
  290, 324,
  290, 326,
  290, 327,
  290, 331,
  290, 332,
  290, 336,
  290, 337,
  290, 338,
  290, 340,
  290, 341,
  290, 342,
  290, 343,
  290, 345,
  290, 346,
  290, 347,
  290, 348,
  290, 349,
  290, 350,
  290, 353,
  290, 354,
  290, 355,
  290, 357,
  290, 359,
  290, 360,
  290, 361,
  290, 362,
  290, 365,
  290, 366,
  290, 367,
  290, 370,
  290, 371,
  290, 374,
  290, 376,
  290, 380,
  290, 381,
  290, 386,
  290, 387,
  290, 388,
  290, 389,
  290, 390,
  290, 391,
  290, 392,
  290, 394,
  290, 397,
  290, 398,
  291, 293,
  291, 295,
  291, 296,
  291, 297,
  291, 300,
  291, 304,
  291, 305,
  291, 306,
  291, 309,
  291, 311,
  291, 312,
  291, 313,
  291, 314,
  291, 315,
  291, 316,
  291, 318,
  291, 319,
  291, 321,
  291, 327,
  291, 330,
  291, 331,
  291, 335,
  291, 338,
  291, 341,
  291, 342,
  291, 345,
  291, 346,
  291, 348,
  291, 352,
  291, 356,
  291, 358,
  291, 363,
  291, 366,
  291, 367,
  291, 369,
  291, 373,
  291, 376,
  291, 381,
  291, 385,
  291, 391,
  291, 392,
  291, 393,
  291, 394,
  291, 395,
  291, 397,
  292, 293,
  292, 296,
  292, 300,
  292, 301,
  292, 308,
  292, 309,
  292, 311,
  292, 314,
  292, 315,
  292, 316,
  292, 319,
  292, 320,
  292, 321,
  292, 322,
  292, 325,
  292, 329,
  292, 330,
  292, 331,
  292, 332,
  292, 334,
  292, 335,
  292, 337,
  292, 338,
  292, 339,
  292, 340,
  292, 341,
  292, 342,
  292, 343,
  292, 346,
  292, 347,
  292, 354,
  292, 357,
  292, 359,
  292, 360,
  292, 361,
  292, 363,
  292, 365,
  292, 366,
  292, 367,
  292, 372,
  292, 373,
  292, 378,
  292, 380,
  292, 382,
  292, 383,
  292, 385,
  292, 386,
  292, 387,
  292, 388,
  292, 391,
  292, 392,
  292, 393,
  292, 399,
  292, 400,
  293, 298,
  293, 300,
  293, 305,
  293, 306,
  293, 309,
  293, 310,
  293, 313,
  293, 314,
  293, 315,
  293, 316,
  293, 318,
  293, 319,
  293, 320,
  293, 321,
  293, 322,
  293, 324,
  293, 327,
  293, 328,
  293, 329,
  293, 330,
  293, 332,
  293, 334,
  293, 338,
  293, 339,
  293, 342,
  293, 343,
  293, 345,
  293, 346,
  293, 348,
  293, 349,
  293, 351,
  293, 352,
  293, 354,
  293, 357,
  293, 358,
  293, 359,
  293, 363,
  293, 364,
  293, 365,
  293, 366,
  293, 368,
  293, 370,
  293, 375,
  293, 379,
  293, 380,
  293, 390,
  293, 391,
  293, 393,
  293, 395,
  293, 399,
  293, 400,
  294, 298,
  294, 300,
  294, 302,
  294, 303,
  294, 308,
  294, 309,
  294, 310,
  294, 311,
  294, 313,
  294, 315,
  294, 321,
  294, 322,
  294, 323,
  294, 324,
  294, 325,
  294, 329,
  294, 331,
  294, 332,
  294, 333,
  294, 334,
  294, 336,
  294, 338,
  294, 339,
  294, 340,
  294, 341,
  294, 342,
  294, 344,
  294, 345,
  294, 347,
  294, 350,
  294, 351,
  294, 353,
  294, 355,
  294, 362,
  294, 363,
  294, 364,
  294, 366,
  294, 370,
  294, 371,
  294, 372,
  294, 373,
  294, 374,
  294, 375,
  294, 376,
  294, 380,
  294, 381,
  294, 382,
  294, 383,
  294, 384,
  294, 390,
  294, 391,
  294, 392,
  294, 394,
  294, 395,
  294, 398,
  294, 399,
  295, 296,
  295, 297,
  295, 299,
  295, 302,
  295, 303,
  295, 304,
  295, 305,
  295, 315,
  295, 317,
  295, 318,
  295, 320,
  295, 321,
  295, 324,
  295, 327,
  295, 328,
  295, 329,
  295, 330,
  295, 331,
  295, 332,
  295, 333,
  295, 337,
  295, 338,
  295, 339,
  295, 341,
  295, 342,
  295, 343,
  295, 345,
  295, 346,
  295, 350,
  295, 351,
  295, 352,
  295, 353,
  295, 355,
  295, 356,
  295, 357,
  295, 359,
  295, 361,
  295, 368,
  295, 369,
  295, 370,
  295, 371,
  295, 372,
  295, 374,
  295, 377,
  295, 379,
  295, 382,
  295, 383,
  295, 385,
  295, 386,
  295, 389,
  295, 390,
  295, 391,
  295, 393,
  295, 395,
  295, 396,
  295, 397,
  295, 399,
  295, 400,
  296, 297,
  296, 299,
  296, 301,
  296, 302,
  296, 308,
  296, 309,
  296, 310,
  296, 315,
  296, 317,
  296, 318,
  296, 323,
  296, 324,
  296, 329,
  296, 330,
  296, 331,
  296, 337,
  296, 338,
  296, 339,
  296, 340,
  296, 343,
  296, 345,
  296, 346,
  296, 350,
  296, 351,
  296, 352,
  296, 354,
  296, 356,
  296, 358,
  296, 360,
  296, 361,
  296, 364,
  296, 367,
  296, 368,
  296, 369,
  296, 371,
  296, 373,
  296, 374,
  296, 375,
  296, 377,
  296, 378,
  296, 380,
  296, 381,
  296, 386,
  296, 387,
  296, 390,
  296, 391,
  296, 393,
  296, 396,
  296, 397,
  296, 398,
  296, 400,
  297, 298,
  297, 302,
  297, 307,
  297, 310,
  297, 311,
  297, 312,
  297, 314,
  297, 315,
  297, 318,
  297, 322,
  297, 323,
  297, 325,
  297, 328,
  297, 329,
  297, 330,
  297, 332,
  297, 334,
  297, 338,
  297, 339,
  297, 340,
  297, 342,
  297, 346,
  297, 349,
  297, 350,
  297, 351,
  297, 355,
  297, 358,
  297, 360,
  297, 362,
  297, 364,
  297, 365,
  297, 371,
  297, 372,
  297, 373,
  297, 375,
  297, 377,
  297, 379,
  297, 382,
  297, 387,
  297, 388,
  297, 389,
  297, 391,
  297, 394,
  297, 395,
  297, 399,
  298, 301,
  298, 304,
  298, 305,
  298, 306,
  298, 307,
  298, 309,
  298, 311,
  298, 312,
  298, 313,
  298, 315,
  298, 317,
  298, 318,
  298, 319,
  298, 320,
  298, 322,
  298, 325,
  298, 326,
  298, 327,
  298, 329,
  298, 330,
  298, 331,
  298, 332,
  298, 335,
  298, 342,
  298, 343,
  298, 345,
  298, 346,
  298, 347,
  298, 348,
  298, 349,
  298, 352,
  298, 353,
  298, 354,
  298, 356,
  298, 357,
  298, 359,
  298, 360,
  298, 361,
  298, 362,
  298, 364,
  298, 365,
  298, 369,
  298, 376,
  298, 381,
  298, 389,
  298, 393,
  298, 396,
  298, 397,
  298, 398,
  298, 399,
  299, 301,
  299, 302,
  299, 305,
  299, 307,
  299, 309,
  299, 318,
  299, 319,
  299, 320,
  299, 321,
  299, 324,
  299, 328,
  299, 329,
  299, 331,
  299, 335,
  299, 336,
  299, 341,
  299, 342,
  299, 344,
  299, 345,
  299, 347,
  299, 350,
  299, 351,
  299, 352,
  299, 353,
  299, 357,
  299, 358,
  299, 361,
  299, 363,
  299, 371,
  299, 372,
  299, 373,
  299, 377,
  299, 378,
  299, 379,
  299, 380,
  299, 381,
  299, 383,
  299, 386,
  299, 388,
  299, 393,
  299, 399,
  299, 400,
  300, 301,
  300, 302,
  300, 304,
  300, 306,
  300, 314,
  300, 316,
  300, 317,
  300, 320,
  300, 323,
  300, 325,
  300, 328,
  300, 329,
  300, 330,
  300, 334,
  300, 338,
  300, 339,
  300, 341,
  300, 342,
  300, 346,
  300, 348,
  300, 349,
  300, 352,
  300, 355,
  300, 356,
  300, 360,
  300, 365,
  300, 366,
  300, 369,
  300, 370,
  300, 371,
  300, 373,
  300, 375,
  300, 380,
  300, 386,
  300, 391,
  300, 392,
  300, 393,
  300, 394,
  300, 395,
  300, 397,
  300, 400,
  301, 302,
  301, 303,
  301, 305,
  301, 306,
  301, 308,
  301, 309,
  301, 313,
  301, 314,
  301, 316,
  301, 317,
  301, 319,
  301, 321,
  301, 328,
  301, 332,
  301, 333,
  301, 334,
  301, 339,
  301, 342,
  301, 343,
  301, 345,
  301, 346,
  301, 347,
  301, 351,
  301, 352,
  301, 353,
  301, 354,
  301, 355,
  301, 359,
  301, 364,
  301, 365,
  301, 367,
  301, 368,
  301, 369,
  301, 371,
  301, 373,
  301, 374,
  301, 376,
  301, 377,
  301, 379,
  301, 380,
  301, 381,
  301, 388,
  301, 391,
  301, 392,
  301, 395,
  301, 398,
  301, 399,
  301, 400,
  302, 305,
  302, 306,
  302, 308,
  302, 309,
  302, 311,
  302, 313,
  302, 314,
  302, 318,
  302, 319,
  302, 321,
  302, 322,
  302, 324,
  302, 325,
  302, 327,
  302, 332,
  302, 338,
  302, 339,
  302, 340,
  302, 341,
  302, 342,
  302, 343,
  302, 348,
  302, 349,
  302, 350,
  302, 351,
  302, 354,
  302, 356,
  302, 358,
  302, 362,
  302, 363,
  302, 364,
  302, 365,
  302, 369,
  302, 371,
  302, 377,
  302, 378,
  302, 379,
  302, 380,
  302, 383,
  302, 387,
  302, 388,
  302, 389,
  302, 390,
  302, 391,
  302, 392,
  302, 396,
  303, 306,
  303, 315,
  303, 316,
  303, 320,
  303, 321,
  303, 323,
  303, 324,
  303, 328,
  303, 329,
  303, 330,
  303, 331,
  303, 334,
  303, 335,
  303, 337,
  303, 338,
  303, 339,
  303, 342,
  303, 344,
  303, 345,
  303, 347,
  303, 348,
  303, 352,
  303, 353,
  303, 356,
  303, 357,
  303, 362,
  303, 363,
  303, 364,
  303, 365,
  303, 368,
  303, 370,
  303, 371,
  303, 374,
  303, 375,
  303, 378,
  303, 380,
  303, 384,
  303, 385,
  303, 389,
  303, 398,
  303, 400,
  304, 306,
  304, 310,
  304, 311,
  304, 313,
  304, 316,
  304, 317,
  304, 318,
  304, 319,
  304, 322,
  304, 326,
  304, 329,
  304, 332,
  304, 333,
  304, 334,
  304, 335,
  304, 336,
  304, 337,
  304, 339,
  304, 340,
  304, 342,
  304, 343,
  304, 344,
  304, 347,
  304, 348,
  304, 350,
  304, 352,
  304, 353,
  304, 356,
  304, 357,
  304, 358,
  304, 359,
  304, 360,
  304, 361,
  304, 362,
  304, 363,
  304, 364,
  304, 366,
  304, 367,
  304, 370,
  304, 373,
  304, 374,
  304, 378,
  304, 379,
  304, 380,
  304, 381,
  304, 383,
  304, 385,
  304, 386,
  304, 388,
  304, 389,
  304, 390,
  304, 391,
  304, 392,
  304, 393,
  304, 399,
  304, 400,
  305, 310,
  305, 313,
  305, 314,
  305, 315,
  305, 316,
  305, 317,
  305, 319,
  305, 321,
  305, 322,
  305, 325,
  305, 326,
  305, 328,
  305, 330,
  305, 331,
  305, 334,
  305, 337,
  305, 339,
  305, 342,
  305, 346,
  305, 347,
  305, 351,
  305, 355,
  305, 356,
  305, 357,
  305, 361,
  305, 367,
  305, 370,
  305, 371,
  305, 380,
  305, 381,
  305, 387,
  305, 388,
  305, 389,
  305, 394,
  305, 395,
  305, 396,
  305, 397,
  305, 398,
  305, 399,
  305, 400,
  306, 309,
  306, 310,
  306, 311,
  306, 314,
  306, 316,
  306, 317,
  306, 319,
  306, 322,
  306, 323,
  306, 327,
  306, 328,
  306, 329,
  306, 331,
  306, 332,
  306, 336,
  306, 337,
  306, 340,
  306, 344,
  306, 345,
  306, 346,
  306, 347,
  306, 350,
  306, 351,
  306, 353,
  306, 354,
  306, 356,
  306, 357,
  306, 358,
  306, 361,
  306, 363,
  306, 364,
  306, 365,
  306, 367,
  306, 369,
  306, 370,
  306, 375,
  306, 376,
  306, 380,
  306, 381,
  306, 384,
  306, 385,
  306, 386,
  306, 389,
  306, 392,
  306, 393,
  306, 394,
  306, 397,
  307, 308,
  307, 311,
  307, 312,
  307, 315,
  307, 316,
  307, 319,
  307, 322,
  307, 323,
  307, 329,
  307, 330,
  307, 332,
  307, 333,
  307, 340,
  307, 342,
  307, 344,
  307, 346,
  307, 347,
  307, 350,
  307, 352,
  307, 353,
  307, 354,
  307, 355,
  307, 356,
  307, 360,
  307, 361,
  307, 364,
  307, 367,
  307, 368,
  307, 369,
  307, 370,
  307, 374,
  307, 377,
  307, 381,
  307, 384,
  307, 385,
  307, 387,
  307, 391,
  307, 392,
  307, 394,
  307, 395,
  307, 399,
  307, 400,
  308, 309,
  308, 310,
  308, 315,
  308, 316,
  308, 317,
  308, 319,
  308, 320,
  308, 321,
  308, 322,
  308, 323,
  308, 327,
  308, 329,
  308, 331,
  308, 332,
  308, 334,
  308, 335,
  308, 338,
  308, 341,
  308, 345,
  308, 348,
  308, 350,
  308, 353,
  308, 354,
  308, 355,
  308, 356,
  308, 357,
  308, 358,
  308, 359,
  308, 362,
  308, 365,
  308, 366,
  308, 368,
  308, 369,
  308, 374,
  308, 378,
  308, 379,
  308, 380,
  308, 382,
  308, 386,
  308, 388,
  308, 389,
  308, 390,
  308, 392,
  308, 393,
  308, 395,
  308, 396,
  308, 400,
  309, 313,
  309, 317,
  309, 318,
  309, 319,
  309, 320,
  309, 323,
  309, 325,
  309, 326,
  309, 328,
  309, 329,
  309, 330,
  309, 331,
  309, 334,
  309, 341,
  309, 345,
  309, 346,
  309, 347,
  309, 348,
  309, 350,
  309, 352,
  309, 353,
  309, 354,
  309, 355,
  309, 362,
  309, 363,
  309, 365,
  309, 370,
  309, 372,
  309, 373,
  309, 374,
  309, 375,
  309, 377,
  309, 379,
  309, 380,
  309, 384,
  309, 385,
  309, 386,
  309, 387,
  309, 389,
  309, 390,
  309, 392,
  309, 393,
  309, 394,
  309, 397,
  309, 400,
  310, 312,
  310, 313,
  310, 314,
  310, 317,
  310, 318,
  310, 321,
  310, 323,
  310, 325,
  310, 326,
  310, 328,
  310, 330,
  310, 331,
  310, 332,
  310, 334,
  310, 335,
  310, 337,
  310, 340,
  310, 341,
  310, 343,
  310, 345,
  310, 346,
  310, 347,
  310, 349,
  310, 351,
  310, 352,
  310, 353,
  310, 354,
  310, 356,
  310, 357,
  310, 358,
  310, 359,
  310, 360,
  310, 365,
  310, 367,
  310, 368,
  310, 369,
  310, 370,
  310, 374,
  310, 375,
  310, 381,
  310, 382,
  310, 383,
  310, 384,
  310, 385,
  310, 386,
  310, 388,
  310, 389,
  310, 391,
  310, 393,
  310, 394,
  310, 395,
  310, 398,
  311, 313,
  311, 319,
  311, 321,
  311, 322,
  311, 327,
  311, 333,
  311, 335,
  311, 337,
  311, 338,
  311, 340,
  311, 342,
  311, 344,
  311, 345,
  311, 347,
  311, 350,
  311, 352,
  311, 353,
  311, 354,
  311, 357,
  311, 358,
  311, 363,
  311, 365,
  311, 366,
  311, 368,
  311, 371,
  311, 372,
  311, 373,
  311, 375,
  311, 376,
  311, 378,
  311, 379,
  311, 383,
  311, 388,
  311, 392,
  311, 393,
  311, 396,
  311, 398,
  311, 400,
  312, 313,
  312, 316,
  312, 317,
  312, 318,
  312, 320,
  312, 322,
  312, 326,
  312, 330,
  312, 332,
  312, 333,
  312, 334,
  312, 336,
  312, 340,
  312, 341,
  312, 344,
  312, 345,
  312, 346,
  312, 348,
  312, 349,
  312, 352,
  312, 353,
  312, 354,
  312, 356,
  312, 359,
  312, 360,
  312, 361,
  312, 364,
  312, 365,
  312, 367,
  312, 368,
  312, 369,
  312, 372,
  312, 375,
  312, 376,
  312, 381,
  312, 383,
  312, 384,
  312, 389,
  312, 391,
  312, 393,
  312, 394,
  312, 396,
  313, 314,
  313, 315,
  313, 320,
  313, 321,
  313, 326,
  313, 327,
  313, 328,
  313, 330,
  313, 331,
  313, 333,
  313, 335,
  313, 336,
  313, 337,
  313, 339,
  313, 341,
  313, 347,
  313, 348,
  313, 351,
  313, 352,
  313, 354,
  313, 355,
  313, 356,
  313, 365,
  313, 369,
  313, 372,
  313, 374,
  313, 378,
  313, 381,
  313, 382,
  313, 384,
  313, 385,
  313, 386,
  313, 387,
  313, 388,
  313, 391,
  313, 393,
  313, 395,
  313, 398,
  314, 318,
  314, 319,
  314, 322,
  314, 325,
  314, 326,
  314, 327,
  314, 330,
  314, 331,
  314, 332,
  314, 333,
  314, 334,
  314, 336,
  314, 337,
  314, 341,
  314, 342,
  314, 343,
  314, 345,
  314, 347,
  314, 348,
  314, 350,
  314, 352,
  314, 353,
  314, 354,
  314, 357,
  314, 359,
  314, 360,
  314, 362,
  314, 364,
  314, 365,
  314, 369,
  314, 372,
  314, 373,
  314, 374,
  314, 378,
  314, 380,
  314, 381,
  314, 382,
  314, 385,
  314, 386,
  314, 388,
  314, 389,
  314, 391,
  314, 392,
  314, 393,
  314, 394,
  315, 316,
  315, 317,
  315, 320,
  315, 321,
  315, 322,
  315, 323,
  315, 325,
  315, 326,
  315, 328,
  315, 331,
  315, 332,
  315, 333,
  315, 334,
  315, 335,
  315, 336,
  315, 338,
  315, 339,
  315, 343,
  315, 344,
  315, 348,
  315, 350,
  315, 353,
  315, 358,
  315, 364,
  315, 367,
  315, 369,
  315, 370,
  315, 371,
  315, 372,
  315, 373,
  315, 374,
  315, 376,
  315, 377,
  315, 378,
  315, 379,
  315, 380,
  315, 381,
  315, 382,
  315, 383,
  315, 386,
  315, 387,
  315, 388,
  315, 389,
  315, 392,
  315, 395,
  315, 396,
  315, 397,
  315, 398,
  315, 400,
  316, 318,
  316, 319,
  316, 321,
  316, 322,
  316, 323,
  316, 324,
  316, 330,
  316, 331,
  316, 333,
  316, 334,
  316, 335,
  316, 336,
  316, 338,
  316, 339,
  316, 342,
  316, 343,
  316, 344,
  316, 345,
  316, 346,
  316, 348,
  316, 349,
  316, 350,
  316, 351,
  316, 352,
  316, 353,
  316, 356,
  316, 358,
  316, 361,
  316, 362,
  316, 364,
  316, 365,
  316, 367,
  316, 368,
  316, 369,
  316, 371,
  316, 372,
  316, 374,
  316, 375,
  316, 376,
  316, 378,
  316, 379,
  316, 380,
  316, 381,
  316, 383,
  316, 385,
  316, 386,
  316, 387,
  316, 388,
  316, 390,
  316, 393,
  316, 395,
  316, 396,
  316, 398,
  317, 318,
  317, 321,
  317, 322,
  317, 325,
  317, 326,
  317, 328,
  317, 329,
  317, 331,
  317, 332,
  317, 333,
  317, 336,
  317, 339,
  317, 345,
  317, 346,
  317, 347,
  317, 350,
  317, 351,
  317, 353,
  317, 354,
  317, 355,
  317, 358,
  317, 361,
  317, 362,
  317, 363,
  317, 365,
  317, 367,
  317, 370,
  317, 371,
  317, 373,
  317, 376,
  317, 378,
  317, 379,
  317, 380,
  317, 382,
  317, 383,
  317, 390,
  317, 391,
  317, 395,
  317, 396,
  317, 397,
  318, 320,
  318, 321,
  318, 325,
  318, 326,
  318, 327,
  318, 328,
  318, 329,
  318, 332,
  318, 333,
  318, 334,
  318, 339,
  318, 342,
  318, 344,
  318, 345,
  318, 347,
  318, 351,
  318, 352,
  318, 354,
  318, 355,
  318, 356,
  318, 357,
  318, 360,
  318, 362,
  318, 363,
  318, 365,
  318, 372,
  318, 377,
  318, 378,
  318, 379,
  318, 380,
  318, 385,
  318, 386,
  318, 388,
  318, 389,
  318, 390,
  318, 391,
  318, 395,
  318, 398,
  318, 399,
  318, 400,
  319, 320,
  319, 322,
  319, 323,
  319, 324,
  319, 327,
  319, 329,
  319, 330,
  319, 338,
  319, 339,
  319, 342,
  319, 344,
  319, 345,
  319, 346,
  319, 347,
  319, 349,
  319, 354,
  319, 355,
  319, 358,
  319, 359,
  319, 360,
  319, 362,
  319, 363,
  319, 366,
  319, 367,
  319, 371,
  319, 375,
  319, 376,
  319, 379,
  319, 381,
  319, 382,
  319, 386,
  319, 387,
  319, 388,
  319, 399,
  320, 321,
  320, 324,
  320, 325,
  320, 329,
  320, 330,
  320, 332,
  320, 333,
  320, 335,
  320, 336,
  320, 338,
  320, 342,
  320, 343,
  320, 347,
  320, 348,
  320, 353,
  320, 356,
  320, 359,
  320, 360,
  320, 364,
  320, 365,
  320, 367,
  320, 368,
  320, 369,
  320, 370,
  320, 371,
  320, 373,
  320, 376,
  320, 377,
  320, 380,
  320, 384,
  320, 386,
  320, 389,
  320, 391,
  320, 393,
  320, 394,
  320, 396,
  321, 323,
  321, 324,
  321, 325,
  321, 328,
  321, 329,
  321, 332,
  321, 333,
  321, 335,
  321, 339,
  321, 340,
  321, 341,
  321, 342,
  321, 343,
  321, 346,
  321, 350,
  321, 351,
  321, 356,
  321, 360,
  321, 362,
  321, 363,
  321, 366,
  321, 367,
  321, 368,
  321, 369,
  321, 372,
  321, 374,
  321, 376,
  321, 377,
  321, 378,
  321, 380,
  321, 381,
  321, 383,
  321, 388,
  321, 390,
  321, 391,
  321, 397,
  321, 400,
  322, 323,
  322, 327,
  322, 328,
  322, 331,
  322, 332,
  322, 336,
  322, 337,
  322, 339,
  322, 340,
  322, 342,
  322, 344,
  322, 345,
  322, 349,
  322, 352,
  322, 353,
  322, 355,
  322, 356,
  322, 357,
  322, 359,
  322, 360,
  322, 363,
  322, 364,
  322, 365,
  322, 366,
  322, 367,
  322, 368,
  322, 369,
  322, 370,
  322, 373,
  322, 374,
  322, 375,
  322, 376,
  322, 378,
  322, 381,
  322, 382,
  322, 384,
  322, 386,
  322, 389,
  322, 390,
  322, 392,
  322, 394,
  322, 398,
  322, 399,
  322, 400,
  323, 324,
  323, 326,
  323, 327,
  323, 328,
  323, 329,
  323, 330,
  323, 331,
  323, 332,
  323, 333,
  323, 336,
  323, 339,
  323, 340,
  323, 341,
  323, 344,
  323, 345,
  323, 346,
  323, 347,
  323, 348,
  323, 349,
  323, 350,
  323, 353,
  323, 355,
  323, 358,
  323, 360,
  323, 361,
  323, 363,
  323, 364,
  323, 365,
  323, 368,
  323, 369,
  323, 370,
  323, 373,
  323, 374,
  323, 375,
  323, 376,
  323, 377,
  323, 378,
  323, 379,
  323, 381,
  323, 383,
  323, 385,
  323, 387,
  323, 389,
  323, 390,
  323, 391,
  323, 394,
  323, 395,
  323, 396,
  323, 397,
  324, 325,
  324, 326,
  324, 327,
  324, 329,
  324, 331,
  324, 337,
  324, 339,
  324, 342,
  324, 347,
  324, 348,
  324, 351,
  324, 354,
  324, 356,
  324, 357,
  324, 359,
  324, 360,
  324, 361,
  324, 363,
  324, 364,
  324, 367,
  324, 368,
  324, 369,
  324, 372,
  324, 376,
  324, 377,
  324, 378,
  324, 383,
  324, 388,
  324, 390,
  324, 395,
  324, 396,
  324, 397,
  324, 400,
  325, 330,
  325, 331,
  325, 332,
  325, 334,
  325, 335,
  325, 336,
  325, 338,
  325, 339,
  325, 342,
  325, 344,
  325, 346,
  325, 347,
  325, 349,
  325, 354,
  325, 355,
  325, 357,
  325, 360,
  325, 364,
  325, 365,
  325, 367,
  325, 368,
  325, 371,
  325, 376,
  325, 378,
  325, 380,
  325, 384,
  325, 387,
  325, 388,
  325, 390,
  325, 392,
  325, 394,
  325, 395,
  325, 398,
  325, 399,
  326, 327,
  326, 328,
  326, 329,
  326, 330,
  326, 332,
  326, 334,
  326, 337,
  326, 339,
  326, 340,
  326, 343,
  326, 344,
  326, 346,
  326, 347,
  326, 348,
  326, 350,
  326, 352,
  326, 353,
  326, 357,
  326, 358,
  326, 359,
  326, 364,
  326, 365,
  326, 367,
  326, 368,
  326, 370,
  326, 372,
  326, 373,
  326, 374,
  326, 375,
  326, 378,
  326, 381,
  326, 382,
  326, 383,
  326, 384,
  326, 385,
  326, 386,
  326, 387,
  326, 391,
  326, 392,
  326, 393,
  326, 397,
  326, 398,
  326, 399,
  326, 400,
  327, 328,
  327, 331,
  327, 335,
  327, 337,
  327, 338,
  327, 341,
  327, 346,
  327, 347,
  327, 351,
  327, 354,
  327, 355,
  327, 356,
  327, 357,
  327, 358,
  327, 360,
  327, 361,
  327, 363,
  327, 364,
  327, 369,
  327, 371,
  327, 372,
  327, 374,
  327, 375,
  327, 377,
  327, 378,
  327, 379,
  327, 382,
  327, 385,
  327, 386,
  327, 387,
  327, 389,
  327, 393,
  327, 394,
  327, 395,
  327, 398,
  327, 399,
  327, 400,
  328, 329,
  328, 338,
  328, 340,
  328, 342,
  328, 343,
  328, 344,
  328, 345,
  328, 348,
  328, 349,
  328, 350,
  328, 352,
  328, 353,
  328, 357,
  328, 359,
  328, 362,
  328, 368,
  328, 370,
  328, 371,
  328, 373,
  328, 379,
  328, 380,
  328, 381,
  328, 382,
  328, 385,
  328, 386,
  328, 390,
  328, 391,
  328, 392,
  328, 397,
  328, 398,
  328, 399,
  329, 333,
  329, 334,
  329, 335,
  329, 337,
  329, 338,
  329, 340,
  329, 344,
  329, 347,
  329, 351,
  329, 354,
  329, 355,
  329, 357,
  329, 358,
  329, 362,
  329, 365,
  329, 366,
  329, 367,
  329, 372,
  329, 373,
  329, 376,
  329, 379,
  329, 380,
  329, 381,
  329, 382,
  329, 383,
  329, 387,
  329, 390,
  329, 392,
  329, 393,
  329, 394,
  329, 395,
  329, 396,
  329, 397,
  329, 400,
  330, 331,
  330, 333,
  330, 334,
  330, 337,
  330, 339,
  330, 341,
  330, 342,
  330, 343,
  330, 345,
  330, 347,
  330, 348,
  330, 349,
  330, 350,
  330, 351,
  330, 352,
  330, 359,
  330, 361,
  330, 364,
  330, 365,
  330, 367,
  330, 369,
  330, 372,
  330, 373,
  330, 374,
  330, 375,
  330, 376,
  330, 377,
  330, 378,
  330, 379,
  330, 381,
  330, 385,
  330, 386,
  330, 392,
  330, 397,
  330, 399,
  331, 333,
  331, 334,
  331, 338,
  331, 339,
  331, 344,
  331, 346,
  331, 347,
  331, 349,
  331, 352,
  331, 355,
  331, 356,
  331, 359,
  331, 361,
  331, 363,
  331, 366,
  331, 372,
  331, 373,
  331, 375,
  331, 376,
  331, 377,
  331, 380,
  331, 381,
  331, 382,
  331, 383,
  331, 384,
  331, 385,
  331, 388,
  331, 390,
  331, 391,
  331, 393,
  331, 397,
  331, 399,
  332, 334,
  332, 335,
  332, 338,
  332, 339,
  332, 340,
  332, 342,
  332, 343,
  332, 344,
  332, 345,
  332, 350,
  332, 352,
  332, 355,
  332, 357,
  332, 358,
  332, 359,
  332, 361,
  332, 362,
  332, 366,
  332, 367,
  332, 368,
  332, 369,
  332, 370,
  332, 371,
  332, 372,
  332, 373,
  332, 374,
  332, 375,
  332, 376,
  332, 378,
  332, 381,
  332, 383,
  332, 384,
  332, 387,
  332, 388,
  332, 390,
  332, 394,
  332, 395,
  332, 397,
  332, 398,
  333, 337,
  333, 339,
  333, 340,
  333, 341,
  333, 349,
  333, 350,
  333, 352,
  333, 353,
  333, 354,
  333, 355,
  333, 357,
  333, 360,
  333, 365,
  333, 366,
  333, 367,
  333, 368,
  333, 373,
  333, 375,
  333, 377,
  333, 380,
  333, 382,
  333, 383,
  333, 387,
  333, 388,
  333, 390,
  333, 392,
  333, 395,
  333, 396,
  333, 397,
  334, 336,
  334, 337,
  334, 339,
  334, 342,
  334, 347,
  334, 348,
  334, 349,
  334, 350,
  334, 355,
  334, 358,
  334, 359,
  334, 360,
  334, 361,
  334, 363,
  334, 364,
  334, 365,
  334, 366,
  334, 367,
  334, 370,
  334, 371,
  334, 374,
  334, 379,
  334, 380,
  334, 383,
  334, 385,
  334, 386,
  334, 387,
  334, 389,
  334, 390,
  334, 392,
  334, 394,
  334, 396,
  334, 397,
  334, 398,
  335, 336,
  335, 337,
  335, 338,
  335, 341,
  335, 342,
  335, 343,
  335, 344,
  335, 345,
  335, 346,
  335, 348,
  335, 349,
  335, 350,
  335, 351,
  335, 354,
  335, 358,
  335, 360,
  335, 363,
  335, 365,
  335, 368,
  335, 375,
  335, 377,
  335, 379,
  335, 386,
  335, 388,
  335, 391,
  335, 392,
  335, 394,
  335, 395,
  335, 396,
  335, 397,
  335, 398,
  335, 400,
  336, 338,
  336, 340,
  336, 341,
  336, 343,
  336, 344,
  336, 345,
  336, 347,
  336, 348,
  336, 351,
  336, 352,
  336, 354,
  336, 357,
  336, 359,
  336, 360,
  336, 362,
  336, 365,
  336, 369,
  336, 370,
  336, 371,
  336, 373,
  336, 374,
  336, 378,
  336, 379,
  336, 382,
  336, 383,
  336, 384,
  336, 385,
  336, 386,
  336, 387,
  336, 388,
  336, 389,
  336, 390,
  336, 391,
  336, 393,
  336, 394,
  336, 395,
  336, 397,
  336, 400,
  337, 341,
  337, 342,
  337, 344,
  337, 345,
  337, 346,
  337, 348,
  337, 349,
  337, 351,
  337, 354,
  337, 355,
  337, 356,
  337, 357,
  337, 358,
  337, 359,
  337, 361,
  337, 362,
  337, 363,
  337, 364,
  337, 366,
  337, 367,
  337, 368,
  337, 369,
  337, 371,
  337, 377,
  337, 378,
  337, 380,
  337, 381,
  337, 383,
  337, 385,
  337, 386,
  337, 387,
  337, 389,
  337, 390,
  337, 391,
  337, 392,
  337, 395,
  337, 397,
  337, 398,
  337, 399,
  337, 400,
  338, 339,
  338, 340,
  338, 341,
  338, 342,
  338, 343,
  338, 344,
  338, 349,
  338, 353,
  338, 359,
  338, 360,
  338, 364,
  338, 366,
  338, 367,
  338, 368,
  338, 371,
  338, 372,
  338, 373,
  338, 375,
  338, 378,
  338, 379,
  338, 380,
  338, 382,
  338, 383,
  338, 384,
  338, 386,
  338, 387,
  338, 391,
  338, 392,
  338, 393,
  338, 396,
  338, 398,
  339, 340,
  339, 343,
  339, 345,
  339, 350,
  339, 352,
  339, 353,
  339, 355,
  339, 357,
  339, 358,
  339, 360,
  339, 361,
  339, 363,
  339, 364,
  339, 366,
  339, 367,
  339, 369,
  339, 370,
  339, 372,
  339, 373,
  339, 374,
  339, 375,
  339, 377,
  339, 378,
  339, 379,
  339, 384,
  339, 385,
  339, 387,
  339, 389,
  339, 390,
  339, 391,
  339, 392,
  339, 394,
  339, 395,
  339, 396,
  339, 399,
  339, 400,
  340, 344,
  340, 347,
  340, 348,
  340, 352,
  340, 353,
  340, 355,
  340, 357,
  340, 359,
  340, 361,
  340, 362,
  340, 363,
  340, 364,
  340, 366,
  340, 368,
  340, 369,
  340, 370,
  340, 372,
  340, 375,
  340, 377,
  340, 379,
  340, 381,
  340, 384,
  340, 386,
  340, 388,
  340, 392,
  340, 394,
  340, 395,
  340, 396,
  340, 397,
  341, 342,
  341, 343,
  341, 345,
  341, 347,
  341, 348,
  341, 349,
  341, 354,
  341, 355,
  341, 357,
  341, 361,
  341, 363,
  341, 365,
  341, 366,
  341, 367,
  341, 370,
  341, 371,
  341, 375,
  341, 378,
  341, 379,
  341, 380,
  341, 383,
  341, 388,
  341, 389,
  341, 390,
  341, 391,
  341, 393,
  341, 394,
  341, 396,
  341, 400,
  342, 343,
  342, 345,
  342, 347,
  342, 348,
  342, 349,
  342, 350,
  342, 351,
  342, 353,
  342, 358,
  342, 361,
  342, 362,
  342, 363,
  342, 364,
  342, 366,
  342, 367,
  342, 370,
  342, 371,
  342, 375,
  342, 376,
  342, 378,
  342, 383,
  342, 384,
  342, 385,
  342, 386,
  342, 387,
  342, 388,
  342, 389,
  342, 390,
  342, 391,
  342, 392,
  342, 393,
  342, 394,
  342, 395,
  342, 396,
  342, 398,
  343, 344,
  343, 349,
  343, 350,
  343, 351,
  343, 354,
  343, 356,
  343, 357,
  343, 361,
  343, 363,
  343, 368,
  343, 369,
  343, 373,
  343, 374,
  343, 375,
  343, 376,
  343, 380,
  343, 382,
  343, 383,
  343, 384,
  343, 385,
  343, 386,
  343, 389,
  343, 391,
  343, 392,
  343, 393,
  343, 395,
  343, 396,
  343, 397,
  343, 399,
  344, 345,
  344, 348,
  344, 351,
  344, 352,
  344, 357,
  344, 358,
  344, 360,
  344, 361,
  344, 366,
  344, 369,
  344, 370,
  344, 371,
  344, 372,
  344, 373,
  344, 375,
  344, 377,
  344, 380,
  344, 386,
  344, 388,
  344, 390,
  344, 391,
  344, 393,
  344, 396,
  344, 397,
  344, 399,
  344, 400,
  345, 346,
  345, 348,
  345, 351,
  345, 352,
  345, 354,
  345, 355,
  345, 357,
  345, 361,
  345, 370,
  345, 374,
  345, 376,
  345, 380,
  345, 381,
  345, 382,
  345, 383,
  345, 390,
  345, 391,
  345, 397,
  345, 398,
  345, 400,
  346, 347,
  346, 348,
  346, 350,
  346, 351,
  346, 355,
  346, 356,
  346, 357,
  346, 360,
  346, 361,
  346, 363,
  346, 365,
  346, 366,
  346, 369,
  346, 370,
  346, 371,
  346, 373,
  346, 376,
  346, 377,
  346, 379,
  346, 380,
  346, 385,
  346, 386,
  346, 388,
  346, 392,
  346, 395,
  346, 396,
  346, 397,
  346, 398,
  346, 400,
  347, 348,
  347, 349,
  347, 351,
  347, 353,
  347, 354,
  347, 355,
  347, 356,
  347, 358,
  347, 359,
  347, 362,
  347, 364,
  347, 368,
  347, 371,
  347, 372,
  347, 376,
  347, 378,
  347, 380,
  347, 383,
  347, 384,
  347, 386,
  347, 393,
  347, 395,
  347, 397,
  347, 398,
  347, 400,
  348, 350,
  348, 354,
  348, 355,
  348, 359,
  348, 362,
  348, 364,
  348, 366,
  348, 368,
  348, 369,
  348, 370,
  348, 371,
  348, 372,
  348, 375,
  348, 377,
  348, 378,
  348, 383,
  348, 385,
  348, 388,
  348, 393,
  348, 394,
  348, 395,
  348, 398,
  348, 400,
  349, 350,
  349, 351,
  349, 352,
  349, 354,
  349, 356,
  349, 357,
  349, 362,
  349, 363,
  349, 364,
  349, 365,
  349, 366,
  349, 368,
  349, 369,
  349, 370,
  349, 371,
  349, 372,
  349, 375,
  349, 376,
  349, 377,
  349, 380,
  349, 384,
  349, 385,
  349, 386,
  349, 388,
  349, 390,
  349, 391,
  349, 394,
  349, 395,
  349, 396,
  349, 399,
  350, 351,
  350, 352,
  350, 353,
  350, 355,
  350, 358,
  350, 365,
  350, 366,
  350, 367,
  350, 368,
  350, 370,
  350, 372,
  350, 373,
  350, 374,
  350, 375,
  350, 376,
  350, 378,
  350, 379,
  350, 380,
  350, 381,
  350, 383,
  350, 387,
  350, 390,
  350, 391,
  350, 395,
  350, 396,
  350, 397,
  350, 399,
  350, 400,
  351, 352,
  351, 353,
  351, 356,
  351, 359,
  351, 361,
  351, 363,
  351, 364,
  351, 365,
  351, 366,
  351, 367,
  351, 370,
  351, 371,
  351, 375,
  351, 376,
  351, 379,
  351, 380,
  351, 381,
  351, 382,
  351, 386,
  351, 387,
  351, 388,
  351, 389,
  351, 390,
  351, 393,
  351, 395,
  351, 396,
  351, 397,
  351, 398,
  351, 399,
  352, 353,
  352, 355,
  352, 356,
  352, 359,
  352, 360,
  352, 361,
  352, 364,
  352, 366,
  352, 367,
  352, 368,
  352, 369,
  352, 371,
  352, 372,
  352, 373,
  352, 376,
  352, 377,
  352, 381,
  352, 384,
  352, 385,
  352, 386,
  352, 387,
  352, 389,
  352, 392,
  352, 393,
  352, 396,
  352, 398,
  352, 399,
  353, 355,
  353, 356,
  353, 357,
  353, 358,
  353, 360,
  353, 363,
  353, 364,
  353, 365,
  353, 366,
  353, 368,
  353, 369,
  353, 371,
  353, 372,
  353, 373,
  353, 376,
  353, 377,
  353, 382,
  353, 383,
  353, 385,
  353, 387,
  353, 390,
  353, 391,
  353, 392,
  353, 393,
  353, 394,
  353, 396,
  353, 399,
  353, 400,
  354, 355,
  354, 356,
  354, 358,
  354, 360,
  354, 362,
  354, 363,
  354, 365,
  354, 367,
  354, 368,
  354, 373,
  354, 375,
  354, 376,
  354, 377,
  354, 378,
  354, 381,
  354, 382,
  354, 383,
  354, 388,
  354, 389,
  354, 391,
  354, 393,
  354, 394,
  354, 395,
  354, 397,
  354, 398,
  354, 399,
  355, 357,
  355, 358,
  355, 359,
  355, 362,
  355, 364,
  355, 367,
  355, 368,
  355, 369,
  355, 370,
  355, 371,
  355, 372,
  355, 373,
  355, 374,
  355, 375,
  355, 379,
  355, 386,
  355, 387,
  355, 388,
  355, 390,
  355, 391,
  355, 394,
  355, 395,
  355, 396,
  355, 399,
  356, 357,
  356, 360,
  356, 363,
  356, 364,
  356, 366,
  356, 368,
  356, 370,
  356, 372,
  356, 373,
  356, 376,
  356, 377,
  356, 378,
  356, 379,
  356, 381,
  356, 382,
  356, 383,
  356, 387,
  356, 388,
  356, 389,
  356, 391,
  356, 394,
  356, 395,
  356, 396,
  356, 397,
  356, 398,
  356, 399,
  356, 400,
  357, 358,
  357, 361,
  357, 366,
  357, 367,
  357, 369,
  357, 371,
  357, 372,
  357, 374,
  357, 376,
  357, 377,
  357, 379,
  357, 380,
  357, 381,
  357, 382,
  357, 383,
  357, 384,
  357, 387,
  357, 390,
  357, 391,
  357, 394,
  357, 395,
  357, 397,
  357, 400,
  358, 359,
  358, 360,
  358, 363,
  358, 364,
  358, 365,
  358, 366,
  358, 369,
  358, 370,
  358, 373,
  358, 375,
  358, 378,
  358, 380,
  358, 381,
  358, 384,
  358, 385,
  358, 386,
  358, 388,
  358, 389,
  358, 390,
  358, 393,
  358, 394,
  358, 396,
  358, 397,
  358, 398,
  358, 399,
  358, 400,
  359, 365,
  359, 367,
  359, 372,
  359, 373,
  359, 374,
  359, 377,
  359, 378,
  359, 379,
  359, 380,
  359, 381,
  359, 382,
  359, 383,
  359, 384,
  359, 386,
  359, 390,
  359, 393,
  359, 397,
  359, 398,
  359, 399,
  359, 400,
  360, 368,
  360, 371,
  360, 380,
  360, 381,
  360, 382,
  360, 383,
  360, 385,
  360, 386,
  360, 391,
  360, 392,
  360, 395,
  360, 396,
  360, 397,
  360, 399,
  361, 362,
  361, 364,
  361, 365,
  361, 366,
  361, 369,
  361, 370,
  361, 377,
  361, 382,
  361, 384,
  361, 386,
  361, 387,
  361, 388,
  361, 390,
  361, 392,
  361, 395,
  361, 396,
  361, 397,
  361, 398,
  361, 399,
  361, 400,
  362, 365,
  362, 367,
  362, 368,
  362, 369,
  362, 370,
  362, 371,
  362, 372,
  362, 376,
  362, 377,
  362, 378,
  362, 380,
  362, 387,
  362, 388,
  362, 390,
  362, 392,
  362, 396,
  362, 400,
  363, 365,
  363, 371,
  363, 372,
  363, 373,
  363, 377,
  363, 378,
  363, 380,
  363, 382,
  363, 385,
  363, 386,
  363, 391,
  363, 399,
  363, 400,
  364, 365,
  364, 366,
  364, 368,
  364, 372,
  364, 376,
  364, 377,
  364, 379,
  364, 381,
  364, 382,
  364, 385,
  364, 386,
  364, 387,
  364, 388,
  364, 390,
  364, 395,
  364, 398,
  364, 399,
  365, 366,
  365, 369,
  365, 371,
  365, 373,
  365, 375,
  365, 377,
  365, 378,
  365, 380,
  365, 383,
  365, 384,
  365, 385,
  365, 386,
  365, 387,
  365, 389,
  365, 390,
  365, 393,
  365, 395,
  365, 398,
  365, 400,
  366, 370,
  366, 371,
  366, 373,
  366, 374,
  366, 376,
  366, 377,
  366, 380,
  366, 381,
  366, 382,
  366, 384,
  366, 385,
  366, 387,
  366, 388,
  366, 391,
  366, 393,
  366, 394,
  366, 395,
  366, 396,
  366, 398,
  367, 368,
  367, 374,
  367, 378,
  367, 379,
  367, 381,
  367, 384,
  367, 385,
  367, 386,
  367, 388,
  367, 392,
  367, 393,
  367, 394,
  367, 397,
  367, 398,
  367, 400,
  368, 369,
  368, 376,
  368, 377,
  368, 378,
  368, 379,
  368, 380,
  368, 381,
  368, 382,
  368, 384,
  368, 385,
  368, 386,
  368, 388,
  368, 390,
  368, 391,
  368, 392,
  368, 394,
  368, 396,
  368, 398,
  369, 371,
  369, 372,
  369, 373,
  369, 374,
  369, 377,
  369, 380,
  369, 381,
  369, 383,
  369, 384,
  369, 385,
  369, 387,
  369, 390,
  369, 391,
  369, 392,
  369, 393,
  369, 394,
  369, 397,
  370, 371,
  370, 373,
  370, 375,
  370, 376,
  370, 378,
  370, 380,
  370, 382,
  370, 383,
  370, 384,
  370, 387,
  370, 391,
  370, 394,
  370, 398,
  371, 372,
  371, 373,
  371, 375,
  371, 379,
  371, 380,
  371, 384,
  371, 385,
  371, 386,
  371, 389,
  371, 390,
  371, 392,
  371, 393,
  371, 394,
  371, 396,
  371, 400,
  372, 373,
  372, 374,
  372, 375,
  372, 378,
  372, 379,
  372, 380,
  372, 382,
  372, 383,
  372, 384,
  372, 389,
  372, 390,
  372, 393,
  372, 395,
  372, 396,
  372, 398,
  373, 375,
  373, 376,
  373, 378,
  373, 379,
  373, 381,
  373, 382,
  373, 383,
  373, 385,
  373, 386,
  373, 387,
  373, 389,
  373, 392,
  373, 394,
  373, 398,
  374, 376,
  374, 377,
  374, 379,
  374, 380,
  374, 388,
  374, 389,
  374, 391,
  374, 395,
  374, 399,
  374, 400,
  375, 376,
  375, 377,
  375, 379,
  375, 383,
  375, 385,
  375, 386,
  375, 389,
  375, 391,
  375, 394,
  375, 397,
  375, 398,
  375, 399,
  375, 400,
  376, 382,
  376, 384,
  376, 385,
  376, 386,
  376, 388,
  376, 389,
  376, 390,
  376, 394,
  376, 395,
  376, 396,
  376, 397,
  377, 378,
  377, 379,
  377, 380,
  377, 381,
  377, 388,
  377, 390,
  377, 393,
  377, 394,
  377, 398,
  377, 399,
  377, 400,
  378, 379,
  378, 380,
  378, 383,
  378, 387,
  378, 388,
  378, 389,
  378, 390,
  378, 391,
  378, 393,
  378, 400,
  379, 380,
  379, 382,
  379, 383,
  379, 385,
  379, 386,
  379, 388,
  379, 392,
  379, 397,
  379, 399,
  380, 383,
  380, 388,
  380, 391,
  380, 392,
  380, 394,
  380, 395,
  380, 396,
  380, 397,
  380, 399,
  381, 382,
  381, 384,
  381, 386,
  381, 388,
  381, 389,
  381, 391,
  381, 392,
  381, 394,
  381, 395,
  381, 396,
  381, 397,
  381, 398,
  381, 399,
  381, 400,
  382, 385,
  382, 386,
  382, 391,
  382, 394,
  382, 395,
  382, 396,
  382, 397,
  382, 398,
  382, 399,
  382, 400,
  383, 388,
  383, 391,
  383, 392,
  383, 393,
  383, 394,
  383, 396,
  383, 397,
  383, 400,
  384, 385,
  384, 386,
  384, 391,
  384, 393,
  384, 395,
  384, 398,
  385, 386,
  385, 389,
  385, 392,
  385, 396,
  385, 397,
  385, 398,
  385, 400,
  386, 389,
  386, 390,
  386, 393,
  386, 395,
  386, 396,
  387, 391,
  387, 392,
  387, 393,
  387, 395,
  387, 396,
  388, 391,
  388, 392,
  388, 393,
  388, 398,
  388, 399,
  388, 400,
  389, 392,
  389, 393,
  389, 396,
  389, 399,
  389, 400,
  390, 392,
  390, 396,
  390, 397,
  390, 400,
  391, 392,
  391, 396,
  391, 400,
  392, 393,
  392, 394,
  392, 395,
  392, 396,
  392, 397,
  392, 398,
  393, 394,
  393, 396,
  393, 399,
  394, 395,
  394, 399,
  395, 396,
  395, 399,
  395, 400,
  396, 397,
  396, 398,
  397, 398,
  397, 400,
  398, 399
]);
