n = 500;
k = 200;
m = 62546;
edges = array2d(1..m, 1..2, [
  1, 2,
  1, 3,
  1, 4,
  1, 5,
  1, 6,
  1, 7,
  1, 10,
  1, 11,
  1, 12,
  1, 13,
  1, 14,
  1, 15,
  1, 16,
  1, 17,
  1, 19,
  1, 20,
  1, 21,
  1, 22,
  1, 23,
  1, 24,
  1, 25,
  1, 26,
  1, 27,
  1, 28,
  1, 31,
  1, 32,
  1, 33,
  1, 34,
  1, 37,
  1, 39,
  1, 41,
  1, 43,
  1, 44,
  1, 45,
  1, 46,
  1, 47,
  1, 48,
  1, 49,
  1, 50,
  1, 51,
  1, 55,
  1, 56,
  1, 59,
  1, 60,
  1, 64,
  1, 65,
  1, 68,
  1, 69,
  1, 73,
  1, 77,
  1, 83,
  1, 85,
  1, 86,
  1, 90,
  1, 94,
  1, 98,
  1, 99,
  1, 103,
  1, 104,
  1, 107,
  1, 108,
  1, 110,
  1, 111,
  1, 114,
  1, 115,
  1, 116,
  1, 117,
  1, 118,
  1, 119,
  1, 128,
  1, 129,
  1, 131,
  1, 132,
  1, 133,
  1, 135,
  1, 139,
  1, 140,
  1, 142,
  1, 144,
  1, 146,
  1, 147,
  1, 149,
  1, 153,
  1, 157,
  1, 158,
  1, 159,
  1, 161,
  1, 162,
  1, 163,
  1, 164,
  1, 165,
  1, 166,
  1, 167,
  1, 171,
  1, 172,
  1, 174,
  1, 175,
  1, 176,
  1, 178,
  1, 181,
  1, 186,
  1, 187,
  1, 188,
  1, 189,
  1, 190,
  1, 191,
  1, 193,
  1, 196,
  1, 204,
  1, 205,
  1, 207,
  1, 209,
  1, 210,
  1, 211,
  1, 213,
  1, 214,
  1, 215,
  1, 216,
  1, 221,
  1, 222,
  1, 224,
  1, 226,
  1, 228,
  1, 230,
  1, 232,
  1, 234,
  1, 235,
  1, 236,
  1, 237,
  1, 238,
  1, 246,
  1, 247,
  1, 252,
  1, 253,
  1, 254,
  1, 255,
  1, 257,
  1, 258,
  1, 264,
  1, 265,
  1, 266,
  1, 268,
  1, 269,
  1, 270,
  1, 271,
  1, 272,
  1, 273,
  1, 274,
  1, 275,
  1, 276,
  1, 277,
  1, 279,
  1, 280,
  1, 290,
  1, 291,
  1, 293,
  1, 294,
  1, 295,
  1, 296,
  1, 297,
  1, 300,
  1, 302,
  1, 303,
  1, 305,
  1, 309,
  1, 312,
  1, 313,
  1, 315,
  1, 319,
  1, 326,
  1, 329,
  1, 330,
  1, 331,
  1, 335,
  1, 336,
  1, 338,
  1, 339,
  1, 340,
  1, 342,
  1, 346,
  1, 348,
  1, 349,
  1, 351,
  1, 352,
  1, 354,
  1, 355,
  1, 356,
  1, 357,
  1, 361,
  1, 362,
  1, 365,
  1, 366,
  1, 369,
  1, 370,
  1, 371,
  1, 374,
  1, 375,
  1, 378,
  1, 381,
  1, 384,
  1, 385,
  1, 386,
  1, 390,
  1, 391,
  1, 394,
  1, 397,
  1, 400,
  1, 403,
  1, 406,
  1, 407,
  1, 409,
  1, 410,
  1, 412,
  1, 413,
  1, 416,
  1, 418,
  1, 419,
  1, 423,
  1, 424,
  1, 425,
  1, 427,
  1, 434,
  1, 435,
  1, 439,
  1, 440,
  1, 444,
  1, 445,
  1, 450,
  1, 451,
  1, 454,
  1, 459,
  1, 465,
  1, 469,
  1, 470,
  1, 472,
  1, 480,
  1, 482,
  1, 484,
  1, 485,
  1, 491,
  1, 492,
  1, 494,
  1, 496,
  1, 498,
  2, 3,
  2, 4,
  2, 5,
  2, 8,
  2, 9,
  2, 12,
  2, 14,
  2, 18,
  2, 22,
  2, 23,
  2, 26,
  2, 32,
  2, 33,
  2, 34,
  2, 38,
  2, 39,
  2, 41,
  2, 42,
  2, 43,
  2, 44,
  2, 45,
  2, 50,
  2, 51,
  2, 55,
  2, 56,
  2, 58,
  2, 59,
  2, 61,
  2, 62,
  2, 66,
  2, 68,
  2, 69,
  2, 70,
  2, 71,
  2, 74,
  2, 75,
  2, 78,
  2, 79,
  2, 80,
  2, 81,
  2, 83,
  2, 86,
  2, 91,
  2, 94,
  2, 96,
  2, 98,
  2, 99,
  2, 100,
  2, 101,
  2, 102,
  2, 103,
  2, 104,
  2, 105,
  2, 106,
  2, 107,
  2, 108,
  2, 110,
  2, 118,
  2, 119,
  2, 120,
  2, 124,
  2, 130,
  2, 131,
  2, 133,
  2, 135,
  2, 136,
  2, 137,
  2, 140,
  2, 141,
  2, 142,
  2, 147,
  2, 149,
  2, 150,
  2, 155,
  2, 156,
  2, 157,
  2, 162,
  2, 167,
  2, 171,
  2, 173,
  2, 177,
  2, 181,
  2, 183,
  2, 184,
  2, 187,
  2, 195,
  2, 199,
  2, 200,
  2, 201,
  2, 202,
  2, 203,
  2, 204,
  2, 205,
  2, 206,
  2, 207,
  2, 209,
  2, 211,
  2, 212,
  2, 215,
  2, 218,
  2, 222,
  2, 223,
  2, 224,
  2, 225,
  2, 227,
  2, 228,
  2, 229,
  2, 232,
  2, 234,
  2, 239,
  2, 240,
  2, 242,
  2, 243,
  2, 246,
  2, 248,
  2, 251,
  2, 252,
  2, 253,
  2, 254,
  2, 256,
  2, 259,
  2, 260,
  2, 263,
  2, 265,
  2, 271,
  2, 273,
  2, 276,
  2, 278,
  2, 280,
  2, 281,
  2, 282,
  2, 283,
  2, 284,
  2, 285,
  2, 291,
  2, 293,
  2, 294,
  2, 295,
  2, 297,
  2, 303,
  2, 308,
  2, 311,
  2, 313,
  2, 314,
  2, 315,
  2, 316,
  2, 317,
  2, 318,
  2, 321,
  2, 323,
  2, 324,
  2, 326,
  2, 328,
  2, 329,
  2, 332,
  2, 334,
  2, 335,
  2, 336,
  2, 338,
  2, 339,
  2, 340,
  2, 341,
  2, 344,
  2, 349,
  2, 350,
  2, 352,
  2, 356,
  2, 358,
  2, 363,
  2, 365,
  2, 368,
  2, 370,
  2, 371,
  2, 373,
  2, 376,
  2, 377,
  2, 378,
  2, 379,
  2, 381,
  2, 384,
  2, 388,
  2, 389,
  2, 390,
  2, 391,
  2, 392,
  2, 393,
  2, 396,
  2, 397,
  2, 398,
  2, 401,
  2, 403,
  2, 404,
  2, 405,
  2, 406,
  2, 407,
  2, 409,
  2, 411,
  2, 412,
  2, 414,
  2, 415,
  2, 416,
  2, 417,
  2, 421,
  2, 422,
  2, 423,
  2, 424,
  2, 427,
  2, 428,
  2, 429,
  2, 430,
  2, 431,
  2, 432,
  2, 433,
  2, 438,
  2, 441,
  2, 448,
  2, 449,
  2, 450,
  2, 452,
  2, 455,
  2, 456,
  2, 462,
  2, 463,
  2, 466,
  2, 470,
  2, 473,
  2, 475,
  2, 476,
  2, 477,
  2, 478,
  2, 479,
  2, 485,
  2, 486,
  2, 488,
  2, 489,
  2, 490,
  2, 492,
  2, 494,
  2, 495,
  2, 497,
  2, 498,
  2, 500,
  3, 4,
  3, 5,
  3, 6,
  3, 7,
  3, 8,
  3, 13,
  3, 14,
  3, 16,
  3, 18,
  3, 21,
  3, 22,
  3, 24,
  3, 25,
  3, 26,
  3, 28,
  3, 30,
  3, 32,
  3, 35,
  3, 36,
  3, 38,
  3, 41,
  3, 42,
  3, 43,
  3, 44,
  3, 45,
  3, 47,
  3, 49,
  3, 51,
  3, 56,
  3, 58,
  3, 59,
  3, 61,
  3, 63,
  3, 65,
  3, 66,
  3, 68,
  3, 71,
  3, 75,
  3, 77,
  3, 80,
  3, 82,
  3, 83,
  3, 84,
  3, 86,
  3, 87,
  3, 89,
  3, 90,
  3, 91,
  3, 92,
  3, 93,
  3, 94,
  3, 96,
  3, 97,
  3, 98,
  3, 100,
  3, 103,
  3, 104,
  3, 105,
  3, 107,
  3, 108,
  3, 109,
  3, 110,
  3, 111,
  3, 113,
  3, 117,
  3, 118,
  3, 119,
  3, 120,
  3, 121,
  3, 122,
  3, 124,
  3, 127,
  3, 128,
  3, 129,
  3, 131,
  3, 132,
  3, 134,
  3, 136,
  3, 141,
  3, 144,
  3, 147,
  3, 148,
  3, 152,
  3, 154,
  3, 156,
  3, 157,
  3, 160,
  3, 162,
  3, 163,
  3, 164,
  3, 168,
  3, 169,
  3, 171,
  3, 172,
  3, 174,
  3, 176,
  3, 178,
  3, 180,
  3, 181,
  3, 187,
  3, 188,
  3, 190,
  3, 191,
  3, 192,
  3, 193,
  3, 194,
  3, 196,
  3, 197,
  3, 198,
  3, 200,
  3, 206,
  3, 207,
  3, 208,
  3, 214,
  3, 215,
  3, 216,
  3, 221,
  3, 223,
  3, 225,
  3, 226,
  3, 227,
  3, 228,
  3, 230,
  3, 234,
  3, 235,
  3, 238,
  3, 241,
  3, 246,
  3, 247,
  3, 249,
  3, 255,
  3, 257,
  3, 258,
  3, 260,
  3, 261,
  3, 263,
  3, 266,
  3, 269,
  3, 270,
  3, 271,
  3, 273,
  3, 274,
  3, 280,
  3, 281,
  3, 283,
  3, 285,
  3, 290,
  3, 294,
  3, 295,
  3, 296,
  3, 299,
  3, 301,
  3, 302,
  3, 304,
  3, 305,
  3, 307,
  3, 308,
  3, 309,
  3, 312,
  3, 313,
  3, 315,
  3, 318,
  3, 320,
  3, 322,
  3, 323,
  3, 325,
  3, 326,
  3, 327,
  3, 328,
  3, 330,
  3, 331,
  3, 335,
  3, 336,
  3, 340,
  3, 341,
  3, 343,
  3, 344,
  3, 345,
  3, 346,
  3, 347,
  3, 348,
  3, 350,
  3, 351,
  3, 352,
  3, 355,
  3, 359,
  3, 360,
  3, 361,
  3, 362,
  3, 363,
  3, 364,
  3, 372,
  3, 373,
  3, 374,
  3, 375,
  3, 376,
  3, 377,
  3, 378,
  3, 381,
  3, 382,
  3, 383,
  3, 385,
  3, 387,
  3, 389,
  3, 391,
  3, 392,
  3, 393,
  3, 394,
  3, 395,
  3, 396,
  3, 399,
  3, 401,
  3, 402,
  3, 404,
  3, 405,
  3, 406,
  3, 408,
  3, 409,
  3, 411,
  3, 413,
  3, 414,
  3, 416,
  3, 418,
  3, 423,
  3, 426,
  3, 428,
  3, 430,
  3, 432,
  3, 433,
  3, 434,
  3, 435,
  3, 437,
  3, 440,
  3, 444,
  3, 445,
  3, 448,
  3, 450,
  3, 451,
  3, 452,
  3, 453,
  3, 455,
  3, 457,
  3, 461,
  3, 462,
  3, 463,
  3, 466,
  3, 469,
  3, 471,
  3, 477,
  3, 478,
  3, 480,
  3, 490,
  3, 494,
  3, 498,
  3, 499,
  3, 500,
  4, 5,
  4, 7,
  4, 8,
  4, 9,
  4, 15,
  4, 16,
  4, 18,
  4, 22,
  4, 23,
  4, 25,
  4, 31,
  4, 33,
  4, 34,
  4, 36,
  4, 37,
  4, 38,
  4, 40,
  4, 43,
  4, 44,
  4, 45,
  4, 46,
  4, 47,
  4, 49,
  4, 50,
  4, 51,
  4, 52,
  4, 57,
  4, 59,
  4, 60,
  4, 61,
  4, 70,
  4, 71,
  4, 72,
  4, 73,
  4, 74,
  4, 78,
  4, 80,
  4, 84,
  4, 85,
  4, 86,
  4, 87,
  4, 91,
  4, 93,
  4, 97,
  4, 98,
  4, 99,
  4, 103,
  4, 106,
  4, 108,
  4, 109,
  4, 110,
  4, 111,
  4, 112,
  4, 116,
  4, 117,
  4, 118,
  4, 120,
  4, 121,
  4, 124,
  4, 126,
  4, 127,
  4, 129,
  4, 130,
  4, 131,
  4, 132,
  4, 134,
  4, 135,
  4, 139,
  4, 140,
  4, 141,
  4, 144,
  4, 145,
  4, 147,
  4, 152,
  4, 153,
  4, 154,
  4, 157,
  4, 159,
  4, 161,
  4, 162,
  4, 164,
  4, 165,
  4, 167,
  4, 168,
  4, 169,
  4, 170,
  4, 171,
  4, 174,
  4, 178,
  4, 182,
  4, 183,
  4, 184,
  4, 185,
  4, 186,
  4, 187,
  4, 188,
  4, 190,
  4, 191,
  4, 193,
  4, 194,
  4, 195,
  4, 196,
  4, 198,
  4, 200,
  4, 201,
  4, 202,
  4, 203,
  4, 205,
  4, 206,
  4, 207,
  4, 211,
  4, 216,
  4, 217,
  4, 218,
  4, 220,
  4, 223,
  4, 224,
  4, 227,
  4, 231,
  4, 232,
  4, 233,
  4, 237,
  4, 239,
  4, 241,
  4, 244,
  4, 246,
  4, 248,
  4, 249,
  4, 251,
  4, 252,
  4, 254,
  4, 255,
  4, 256,
  4, 258,
  4, 260,
  4, 261,
  4, 265,
  4, 267,
  4, 268,
  4, 271,
  4, 272,
  4, 278,
  4, 279,
  4, 280,
  4, 281,
  4, 283,
  4, 285,
  4, 287,
  4, 288,
  4, 291,
  4, 293,
  4, 294,
  4, 295,
  4, 297,
  4, 298,
  4, 302,
  4, 304,
  4, 305,
  4, 306,
  4, 307,
  4, 311,
  4, 315,
  4, 316,
  4, 319,
  4, 322,
  4, 325,
  4, 329,
  4, 330,
  4, 331,
  4, 332,
  4, 334,
  4, 335,
  4, 336,
  4, 338,
  4, 339,
  4, 342,
  4, 343,
  4, 345,
  4, 347,
  4, 348,
  4, 351,
  4, 352,
  4, 353,
  4, 356,
  4, 358,
  4, 359,
  4, 360,
  4, 363,
  4, 367,
  4, 369,
  4, 375,
  4, 377,
  4, 378,
  4, 381,
  4, 383,
  4, 384,
  4, 386,
  4, 389,
  4, 390,
  4, 391,
  4, 396,
  4, 397,
  4, 398,
  4, 399,
  4, 400,
  4, 401,
  4, 404,
  4, 405,
  4, 406,
  4, 409,
  4, 410,
  4, 411,
  4, 412,
  4, 414,
  4, 415,
  4, 418,
  4, 420,
  4, 421,
  4, 422,
  4, 423,
  4, 424,
  4, 425,
  4, 433,
  4, 435,
  4, 436,
  4, 438,
  4, 440,
  4, 442,
  4, 443,
  4, 445,
  4, 446,
  4, 447,
  4, 448,
  4, 450,
  4, 451,
  4, 452,
  4, 454,
  4, 455,
  4, 457,
  4, 458,
  4, 460,
  4, 463,
  4, 464,
  4, 466,
  4, 469,
  4, 471,
  4, 472,
  4, 481,
  4, 482,
  4, 484,
  4, 485,
  4, 487,
  4, 489,
  4, 493,
  4, 494,
  4, 495,
  4, 496,
  4, 497,
  4, 498,
  4, 499,
  5, 10,
  5, 11,
  5, 14,
  5, 15,
  5, 17,
  5, 19,
  5, 22,
  5, 23,
  5, 25,
  5, 27,
  5, 29,
  5, 30,
  5, 31,
  5, 32,
  5, 33,
  5, 34,
  5, 35,
  5, 41,
  5, 43,
  5, 44,
  5, 47,
  5, 49,
  5, 52,
  5, 54,
  5, 56,
  5, 57,
  5, 58,
  5, 61,
  5, 64,
  5, 68,
  5, 69,
  5, 70,
  5, 71,
  5, 72,
  5, 73,
  5, 75,
  5, 76,
  5, 79,
  5, 81,
  5, 83,
  5, 84,
  5, 86,
  5, 90,
  5, 91,
  5, 92,
  5, 93,
  5, 95,
  5, 97,
  5, 98,
  5, 100,
  5, 101,
  5, 102,
  5, 105,
  5, 107,
  5, 111,
  5, 112,
  5, 113,
  5, 114,
  5, 115,
  5, 117,
  5, 118,
  5, 121,
  5, 122,
  5, 123,
  5, 127,
  5, 131,
  5, 134,
  5, 136,
  5, 141,
  5, 142,
  5, 145,
  5, 148,
  5, 149,
  5, 151,
  5, 152,
  5, 154,
  5, 155,
  5, 156,
  5, 157,
  5, 159,
  5, 164,
  5, 165,
  5, 167,
  5, 168,
  5, 169,
  5, 171,
  5, 173,
  5, 175,
  5, 177,
  5, 178,
  5, 180,
  5, 181,
  5, 184,
  5, 185,
  5, 186,
  5, 187,
  5, 188,
  5, 190,
  5, 196,
  5, 204,
  5, 206,
  5, 207,
  5, 210,
  5, 214,
  5, 215,
  5, 216,
  5, 218,
  5, 219,
  5, 220,
  5, 222,
  5, 224,
  5, 229,
  5, 231,
  5, 232,
  5, 234,
  5, 236,
  5, 237,
  5, 239,
  5, 240,
  5, 243,
  5, 244,
  5, 245,
  5, 246,
  5, 249,
  5, 250,
  5, 251,
  5, 253,
  5, 254,
  5, 255,
  5, 257,
  5, 260,
  5, 262,
  5, 263,
  5, 264,
  5, 266,
  5, 271,
  5, 272,
  5, 275,
  5, 277,
  5, 278,
  5, 279,
  5, 281,
  5, 286,
  5, 287,
  5, 292,
  5, 296,
  5, 298,
  5, 303,
  5, 305,
  5, 306,
  5, 307,
  5, 310,
  5, 311,
  5, 315,
  5, 321,
  5, 322,
  5, 323,
  5, 324,
  5, 325,
  5, 327,
  5, 328,
  5, 329,
  5, 331,
  5, 332,
  5, 333,
  5, 334,
  5, 335,
  5, 337,
  5, 340,
  5, 341,
  5, 344,
  5, 347,
  5, 352,
  5, 353,
  5, 357,
  5, 359,
  5, 364,
  5, 365,
  5, 366,
  5, 368,
  5, 373,
  5, 374,
  5, 375,
  5, 377,
  5, 378,
  5, 380,
  5, 384,
  5, 385,
  5, 388,
  5, 389,
  5, 393,
  5, 394,
  5, 396,
  5, 400,
  5, 401,
  5, 404,
  5, 405,
  5, 406,
  5, 410,
  5, 412,
  5, 414,
  5, 415,
  5, 416,
  5, 417,
  5, 420,
  5, 421,
  5, 422,
  5, 425,
  5, 428,
  5, 429,
  5, 431,
  5, 434,
  5, 439,
  5, 440,
  5, 441,
  5, 443,
  5, 444,
  5, 445,
  5, 447,
  5, 448,
  5, 454,
  5, 455,
  5, 456,
  5, 458,
  5, 459,
  5, 461,
  5, 462,
  5, 464,
  5, 465,
  5, 466,
  5, 472,
  5, 474,
  5, 475,
  5, 476,
  5, 479,
  5, 481,
  5, 482,
  5, 483,
  5, 488,
  5, 489,
  5, 491,
  5, 492,
  5, 493,
  5, 494,
  5, 496,
  5, 497,
  5, 500,
  6, 9,
  6, 10,
  6, 11,
  6, 12,
  6, 19,
  6, 20,
  6, 21,
  6, 22,
  6, 25,
  6, 26,
  6, 27,
  6, 29,
  6, 32,
  6, 36,
  6, 39,
  6, 40,
  6, 42,
  6, 43,
  6, 44,
  6, 45,
  6, 48,
  6, 49,
  6, 50,
  6, 51,
  6, 52,
  6, 54,
  6, 55,
  6, 59,
  6, 60,
  6, 74,
  6, 75,
  6, 78,
  6, 79,
  6, 84,
  6, 85,
  6, 86,
  6, 87,
  6, 89,
  6, 92,
  6, 97,
  6, 99,
  6, 101,
  6, 103,
  6, 104,
  6, 107,
  6, 108,
  6, 111,
  6, 112,
  6, 116,
  6, 118,
  6, 119,
  6, 120,
  6, 121,
  6, 125,
  6, 132,
  6, 137,
  6, 138,
  6, 139,
  6, 140,
  6, 141,
  6, 143,
  6, 144,
  6, 145,
  6, 148,
  6, 149,
  6, 150,
  6, 151,
  6, 153,
  6, 155,
  6, 157,
  6, 165,
  6, 167,
  6, 177,
  6, 178,
  6, 181,
  6, 184,
  6, 186,
  6, 187,
  6, 188,
  6, 189,
  6, 191,
  6, 192,
  6, 193,
  6, 195,
  6, 196,
  6, 197,
  6, 198,
  6, 200,
  6, 201,
  6, 202,
  6, 203,
  6, 205,
  6, 212,
  6, 218,
  6, 219,
  6, 222,
  6, 225,
  6, 226,
  6, 228,
  6, 229,
  6, 230,
  6, 231,
  6, 232,
  6, 234,
  6, 235,
  6, 236,
  6, 240,
  6, 244,
  6, 245,
  6, 251,
  6, 252,
  6, 255,
  6, 256,
  6, 257,
  6, 258,
  6, 259,
  6, 260,
  6, 261,
  6, 265,
  6, 273,
  6, 274,
  6, 275,
  6, 279,
  6, 281,
  6, 282,
  6, 283,
  6, 285,
  6, 286,
  6, 288,
  6, 290,
  6, 293,
  6, 294,
  6, 296,
  6, 297,
  6, 298,
  6, 301,
  6, 304,
  6, 306,
  6, 311,
  6, 313,
  6, 315,
  6, 317,
  6, 321,
  6, 322,
  6, 323,
  6, 324,
  6, 325,
  6, 326,
  6, 327,
  6, 329,
  6, 330,
  6, 331,
  6, 332,
  6, 334,
  6, 335,
  6, 338,
  6, 344,
  6, 346,
  6, 347,
  6, 349,
  6, 354,
  6, 356,
  6, 357,
  6, 358,
  6, 359,
  6, 360,
  6, 362,
  6, 364,
  6, 365,
  6, 366,
  6, 369,
  6, 374,
  6, 375,
  6, 376,
  6, 377,
  6, 378,
  6, 381,
  6, 382,
  6, 384,
  6, 386,
  6, 387,
  6, 389,
  6, 391,
  6, 393,
  6, 395,
  6, 398,
  6, 400,
  6, 404,
  6, 405,
  6, 408,
  6, 412,
  6, 414,
  6, 417,
  6, 421,
  6, 425,
  6, 428,
  6, 431,
  6, 432,
  6, 433,
  6, 434,
  6, 437,
  6, 438,
  6, 440,
  6, 441,
  6, 444,
  6, 445,
  6, 446,
  6, 447,
  6, 449,
  6, 450,
  6, 459,
  6, 463,
  6, 465,
  6, 468,
  6, 469,
  6, 471,
  6, 473,
  6, 478,
  6, 480,
  6, 481,
  6, 482,
  6, 483,
  6, 485,
  6, 486,
  6, 488,
  6, 491,
  6, 493,
  6, 494,
  6, 495,
  6, 496,
  6, 498,
  6, 499,
  6, 500,
  7, 8,
  7, 10,
  7, 11,
  7, 14,
  7, 17,
  7, 18,
  7, 19,
  7, 20,
  7, 22,
  7, 23,
  7, 27,
  7, 28,
  7, 29,
  7, 30,
  7, 32,
  7, 33,
  7, 34,
  7, 35,
  7, 38,
  7, 39,
  7, 40,
  7, 44,
  7, 45,
  7, 46,
  7, 50,
  7, 54,
  7, 55,
  7, 56,
  7, 58,
  7, 59,
  7, 60,
  7, 61,
  7, 62,
  7, 63,
  7, 65,
  7, 70,
  7, 72,
  7, 73,
  7, 76,
  7, 77,
  7, 78,
  7, 79,
  7, 81,
  7, 82,
  7, 94,
  7, 95,
  7, 98,
  7, 99,
  7, 100,
  7, 109,
  7, 113,
  7, 114,
  7, 118,
  7, 123,
  7, 128,
  7, 129,
  7, 130,
  7, 131,
  7, 132,
  7, 134,
  7, 135,
  7, 136,
  7, 137,
  7, 138,
  7, 139,
  7, 141,
  7, 144,
  7, 145,
  7, 148,
  7, 149,
  7, 150,
  7, 152,
  7, 153,
  7, 155,
  7, 157,
  7, 158,
  7, 159,
  7, 162,
  7, 164,
  7, 165,
  7, 167,
  7, 168,
  7, 170,
  7, 172,
  7, 173,
  7, 177,
  7, 179,
  7, 181,
  7, 185,
  7, 186,
  7, 192,
  7, 193,
  7, 194,
  7, 195,
  7, 196,
  7, 199,
  7, 200,
  7, 201,
  7, 202,
  7, 203,
  7, 206,
  7, 209,
  7, 213,
  7, 215,
  7, 216,
  7, 218,
  7, 220,
  7, 221,
  7, 222,
  7, 223,
  7, 225,
  7, 228,
  7, 229,
  7, 230,
  7, 231,
  7, 234,
  7, 235,
  7, 238,
  7, 240,
  7, 245,
  7, 248,
  7, 249,
  7, 251,
  7, 252,
  7, 255,
  7, 257,
  7, 258,
  7, 259,
  7, 260,
  7, 262,
  7, 263,
  7, 269,
  7, 270,
  7, 272,
  7, 274,
  7, 277,
  7, 281,
  7, 283,
  7, 287,
  7, 289,
  7, 290,
  7, 291,
  7, 292,
  7, 296,
  7, 297,
  7, 299,
  7, 300,
  7, 305,
  7, 308,
  7, 310,
  7, 311,
  7, 312,
  7, 316,
  7, 317,
  7, 318,
  7, 319,
  7, 320,
  7, 327,
  7, 328,
  7, 331,
  7, 332,
  7, 335,
  7, 337,
  7, 338,
  7, 343,
  7, 344,
  7, 346,
  7, 352,
  7, 354,
  7, 355,
  7, 357,
  7, 361,
  7, 362,
  7, 363,
  7, 366,
  7, 367,
  7, 368,
  7, 369,
  7, 370,
  7, 371,
  7, 373,
  7, 375,
  7, 376,
  7, 378,
  7, 379,
  7, 380,
  7, 382,
  7, 383,
  7, 384,
  7, 385,
  7, 387,
  7, 388,
  7, 392,
  7, 396,
  7, 398,
  7, 400,
  7, 401,
  7, 402,
  7, 403,
  7, 404,
  7, 407,
  7, 408,
  7, 409,
  7, 413,
  7, 414,
  7, 421,
  7, 424,
  7, 425,
  7, 429,
  7, 430,
  7, 433,
  7, 434,
  7, 435,
  7, 437,
  7, 441,
  7, 442,
  7, 443,
  7, 445,
  7, 446,
  7, 447,
  7, 449,
  7, 452,
  7, 456,
  7, 457,
  7, 459,
  7, 460,
  7, 463,
  7, 464,
  7, 466,
  7, 468,
  7, 470,
  7, 472,
  7, 474,
  7, 476,
  7, 479,
  7, 480,
  7, 484,
  7, 486,
  7, 487,
  7, 488,
  7, 489,
  7, 491,
  7, 492,
  7, 493,
  7, 495,
  7, 496,
  7, 497,
  7, 499,
  8, 9,
  8, 10,
  8, 12,
  8, 16,
  8, 17,
  8, 18,
  8, 23,
  8, 26,
  8, 29,
  8, 32,
  8, 35,
  8, 36,
  8, 40,
  8, 44,
  8, 46,
  8, 47,
  8, 48,
  8, 50,
  8, 51,
  8, 54,
  8, 56,
  8, 57,
  8, 59,
  8, 63,
  8, 64,
  8, 65,
  8, 67,
  8, 69,
  8, 71,
  8, 75,
  8, 76,
  8, 77,
  8, 78,
  8, 79,
  8, 82,
  8, 83,
  8, 85,
  8, 86,
  8, 87,
  8, 89,
  8, 90,
  8, 91,
  8, 94,
  8, 95,
  8, 96,
  8, 100,
  8, 101,
  8, 102,
  8, 103,
  8, 108,
  8, 113,
  8, 114,
  8, 118,
  8, 119,
  8, 120,
  8, 124,
  8, 125,
  8, 126,
  8, 127,
  8, 128,
  8, 131,
  8, 132,
  8, 133,
  8, 134,
  8, 136,
  8, 138,
  8, 139,
  8, 140,
  8, 142,
  8, 147,
  8, 149,
  8, 150,
  8, 151,
  8, 153,
  8, 154,
  8, 156,
  8, 158,
  8, 162,
  8, 164,
  8, 165,
  8, 166,
  8, 168,
  8, 169,
  8, 171,
  8, 172,
  8, 174,
  8, 175,
  8, 178,
  8, 180,
  8, 181,
  8, 183,
  8, 184,
  8, 185,
  8, 186,
  8, 187,
  8, 189,
  8, 190,
  8, 192,
  8, 193,
  8, 195,
  8, 198,
  8, 199,
  8, 200,
  8, 205,
  8, 206,
  8, 208,
  8, 209,
  8, 212,
  8, 214,
  8, 216,
  8, 218,
  8, 222,
  8, 223,
  8, 224,
  8, 226,
  8, 228,
  8, 231,
  8, 237,
  8, 238,
  8, 240,
  8, 242,
  8, 243,
  8, 244,
  8, 246,
  8, 247,
  8, 249,
  8, 251,
  8, 254,
  8, 258,
  8, 260,
  8, 262,
  8, 263,
  8, 264,
  8, 265,
  8, 268,
  8, 270,
  8, 271,
  8, 274,
  8, 280,
  8, 281,
  8, 282,
  8, 284,
  8, 285,
  8, 288,
  8, 289,
  8, 293,
  8, 294,
  8, 295,
  8, 297,
  8, 300,
  8, 302,
  8, 304,
  8, 305,
  8, 307,
  8, 308,
  8, 309,
  8, 311,
  8, 312,
  8, 313,
  8, 320,
  8, 321,
  8, 323,
  8, 328,
  8, 332,
  8, 333,
  8, 334,
  8, 335,
  8, 336,
  8, 338,
  8, 341,
  8, 342,
  8, 349,
  8, 350,
  8, 353,
  8, 357,
  8, 358,
  8, 361,
  8, 362,
  8, 365,
  8, 368,
  8, 369,
  8, 373,
  8, 375,
  8, 379,
  8, 380,
  8, 381,
  8, 382,
  8, 383,
  8, 384,
  8, 385,
  8, 386,
  8, 387,
  8, 388,
  8, 390,
  8, 397,
  8, 399,
  8, 400,
  8, 401,
  8, 407,
  8, 408,
  8, 409,
  8, 411,
  8, 413,
  8, 416,
  8, 417,
  8, 418,
  8, 421,
  8, 422,
  8, 426,
  8, 428,
  8, 429,
  8, 430,
  8, 432,
  8, 442,
  8, 445,
  8, 446,
  8, 447,
  8, 448,
  8, 449,
  8, 450,
  8, 451,
  8, 453,
  8, 455,
  8, 458,
  8, 459,
  8, 462,
  8, 465,
  8, 467,
  8, 468,
  8, 470,
  8, 471,
  8, 472,
  8, 477,
  8, 479,
  8, 483,
  8, 487,
  8, 489,
  8, 491,
  8, 494,
  8, 496,
  8, 498,
  9, 11,
  9, 12,
  9, 16,
  9, 18,
  9, 19,
  9, 22,
  9, 23,
  9, 24,
  9, 25,
  9, 27,
  9, 28,
  9, 31,
  9, 32,
  9, 33,
  9, 34,
  9, 37,
  9, 39,
  9, 40,
  9, 42,
  9, 45,
  9, 47,
  9, 51,
  9, 52,
  9, 55,
  9, 58,
  9, 59,
  9, 63,
  9, 64,
  9, 65,
  9, 66,
  9, 69,
  9, 71,
  9, 72,
  9, 75,
  9, 79,
  9, 80,
  9, 81,
  9, 84,
  9, 87,
  9, 88,
  9, 91,
  9, 94,
  9, 100,
  9, 103,
  9, 108,
  9, 110,
  9, 111,
  9, 117,
  9, 118,
  9, 123,
  9, 124,
  9, 125,
  9, 128,
  9, 129,
  9, 130,
  9, 131,
  9, 136,
  9, 137,
  9, 138,
  9, 139,
  9, 140,
  9, 141,
  9, 142,
  9, 143,
  9, 145,
  9, 146,
  9, 149,
  9, 150,
  9, 151,
  9, 153,
  9, 156,
  9, 157,
  9, 158,
  9, 159,
  9, 161,
  9, 164,
  9, 167,
  9, 169,
  9, 170,
  9, 177,
  9, 180,
  9, 182,
  9, 184,
  9, 185,
  9, 186,
  9, 187,
  9, 188,
  9, 189,
  9, 190,
  9, 193,
  9, 194,
  9, 197,
  9, 199,
  9, 205,
  9, 206,
  9, 208,
  9, 209,
  9, 214,
  9, 217,
  9, 219,
  9, 220,
  9, 222,
  9, 224,
  9, 229,
  9, 232,
  9, 233,
  9, 235,
  9, 236,
  9, 237,
  9, 239,
  9, 246,
  9, 247,
  9, 248,
  9, 252,
  9, 253,
  9, 254,
  9, 257,
  9, 259,
  9, 266,
  9, 267,
  9, 268,
  9, 271,
  9, 273,
  9, 276,
  9, 277,
  9, 279,
  9, 280,
  9, 281,
  9, 283,
  9, 284,
  9, 286,
  9, 289,
  9, 292,
  9, 297,
  9, 298,
  9, 301,
  9, 303,
  9, 306,
  9, 308,
  9, 313,
  9, 317,
  9, 319,
  9, 320,
  9, 323,
  9, 324,
  9, 325,
  9, 326,
  9, 331,
  9, 332,
  9, 334,
  9, 335,
  9, 336,
  9, 337,
  9, 340,
  9, 341,
  9, 344,
  9, 347,
  9, 348,
  9, 349,
  9, 354,
  9, 355,
  9, 356,
  9, 357,
  9, 362,
  9, 364,
  9, 365,
  9, 366,
  9, 368,
  9, 369,
  9, 374,
  9, 375,
  9, 376,
  9, 378,
  9, 382,
  9, 383,
  9, 384,
  9, 387,
  9, 388,
  9, 389,
  9, 390,
  9, 391,
  9, 392,
  9, 396,
  9, 398,
  9, 399,
  9, 400,
  9, 402,
  9, 404,
  9, 405,
  9, 406,
  9, 407,
  9, 408,
  9, 415,
  9, 418,
  9, 419,
  9, 420,
  9, 421,
  9, 423,
  9, 424,
  9, 425,
  9, 427,
  9, 429,
  9, 432,
  9, 434,
  9, 435,
  9, 436,
  9, 440,
  9, 442,
  9, 449,
  9, 451,
  9, 454,
  9, 455,
  9, 457,
  9, 458,
  9, 460,
  9, 462,
  9, 467,
  9, 468,
  9, 470,
  9, 471,
  9, 472,
  9, 473,
  9, 476,
  9, 477,
  9, 480,
  9, 481,
  9, 482,
  9, 483,
  9, 485,
  9, 486,
  9, 488,
  9, 489,
  9, 490,
  9, 491,
  9, 493,
  9, 494,
  9, 496,
  9, 499,
  10, 11,
  10, 14,
  10, 15,
  10, 16,
  10, 17,
  10, 19,
  10, 20,
  10, 21,
  10, 23,
  10, 25,
  10, 28,
  10, 29,
  10, 33,
  10, 35,
  10, 38,
  10, 41,
  10, 44,
  10, 45,
  10, 47,
  10, 51,
  10, 52,
  10, 53,
  10, 55,
  10, 58,
  10, 64,
  10, 65,
  10, 66,
  10, 68,
  10, 69,
  10, 70,
  10, 72,
  10, 73,
  10, 74,
  10, 76,
  10, 80,
  10, 81,
  10, 82,
  10, 83,
  10, 85,
  10, 91,
  10, 96,
  10, 97,
  10, 98,
  10, 100,
  10, 101,
  10, 104,
  10, 105,
  10, 107,
  10, 114,
  10, 115,
  10, 118,
  10, 119,
  10, 121,
  10, 123,
  10, 125,
  10, 126,
  10, 127,
  10, 129,
  10, 131,
  10, 132,
  10, 135,
  10, 137,
  10, 139,
  10, 140,
  10, 142,
  10, 143,
  10, 148,
  10, 149,
  10, 150,
  10, 151,
  10, 152,
  10, 154,
  10, 155,
  10, 157,
  10, 159,
  10, 160,
  10, 161,
  10, 164,
  10, 165,
  10, 166,
  10, 169,
  10, 170,
  10, 171,
  10, 172,
  10, 173,
  10, 174,
  10, 175,
  10, 177,
  10, 180,
  10, 182,
  10, 183,
  10, 184,
  10, 185,
  10, 187,
  10, 188,
  10, 189,
  10, 190,
  10, 191,
  10, 192,
  10, 194,
  10, 195,
  10, 200,
  10, 203,
  10, 204,
  10, 205,
  10, 211,
  10, 214,
  10, 215,
  10, 219,
  10, 220,
  10, 221,
  10, 223,
  10, 225,
  10, 228,
  10, 231,
  10, 232,
  10, 233,
  10, 235,
  10, 237,
  10, 238,
  10, 239,
  10, 240,
  10, 243,
  10, 247,
  10, 252,
  10, 253,
  10, 254,
  10, 255,
  10, 256,
  10, 257,
  10, 258,
  10, 260,
  10, 261,
  10, 263,
  10, 265,
  10, 266,
  10, 268,
  10, 271,
  10, 272,
  10, 273,
  10, 275,
  10, 276,
  10, 278,
  10, 279,
  10, 281,
  10, 282,
  10, 283,
  10, 285,
  10, 286,
  10, 288,
  10, 289,
  10, 292,
  10, 295,
  10, 298,
  10, 299,
  10, 302,
  10, 304,
  10, 306,
  10, 307,
  10, 309,
  10, 310,
  10, 312,
  10, 315,
  10, 316,
  10, 317,
  10, 318,
  10, 322,
  10, 324,
  10, 325,
  10, 326,
  10, 329,
  10, 331,
  10, 335,
  10, 336,
  10, 337,
  10, 338,
  10, 339,
  10, 340,
  10, 341,
  10, 342,
  10, 345,
  10, 347,
  10, 349,
  10, 350,
  10, 352,
  10, 354,
  10, 355,
  10, 358,
  10, 359,
  10, 360,
  10, 363,
  10, 365,
  10, 366,
  10, 367,
  10, 369,
  10, 372,
  10, 373,
  10, 376,
  10, 377,
  10, 378,
  10, 379,
  10, 380,
  10, 381,
  10, 382,
  10, 387,
  10, 389,
  10, 391,
  10, 393,
  10, 394,
  10, 396,
  10, 398,
  10, 401,
  10, 402,
  10, 403,
  10, 404,
  10, 406,
  10, 407,
  10, 410,
  10, 411,
  10, 414,
  10, 417,
  10, 418,
  10, 424,
  10, 428,
  10, 429,
  10, 431,
  10, 433,
  10, 435,
  10, 436,
  10, 438,
  10, 440,
  10, 442,
  10, 443,
  10, 445,
  10, 446,
  10, 447,
  10, 448,
  10, 449,
  10, 451,
  10, 453,
  10, 454,
  10, 456,
  10, 458,
  10, 461,
  10, 462,
  10, 463,
  10, 464,
  10, 466,
  10, 467,
  10, 468,
  10, 470,
  10, 472,
  10, 473,
  10, 476,
  10, 480,
  10, 481,
  10, 482,
  10, 485,
  10, 487,
  10, 488,
  10, 490,
  10, 491,
  10, 492,
  10, 493,
  10, 494,
  10, 498,
  10, 499,
  10, 500,
  11, 13,
  11, 14,
  11, 15,
  11, 16,
  11, 18,
  11, 22,
  11, 25,
  11, 28,
  11, 30,
  11, 31,
  11, 36,
  11, 38,
  11, 40,
  11, 43,
  11, 46,
  11, 47,
  11, 49,
  11, 51,
  11, 52,
  11, 57,
  11, 58,
  11, 60,
  11, 62,
  11, 67,
  11, 69,
  11, 71,
  11, 72,
  11, 75,
  11, 76,
  11, 77,
  11, 79,
  11, 80,
  11, 81,
  11, 85,
  11, 90,
  11, 91,
  11, 98,
  11, 100,
  11, 104,
  11, 105,
  11, 108,
  11, 113,
  11, 120,
  11, 121,
  11, 122,
  11, 123,
  11, 130,
  11, 131,
  11, 133,
  11, 134,
  11, 135,
  11, 136,
  11, 137,
  11, 139,
  11, 140,
  11, 141,
  11, 145,
  11, 146,
  11, 147,
  11, 151,
  11, 155,
  11, 157,
  11, 158,
  11, 159,
  11, 160,
  11, 161,
  11, 163,
  11, 166,
  11, 169,
  11, 171,
  11, 172,
  11, 174,
  11, 175,
  11, 177,
  11, 188,
  11, 190,
  11, 192,
  11, 193,
  11, 196,
  11, 198,
  11, 200,
  11, 205,
  11, 206,
  11, 207,
  11, 208,
  11, 209,
  11, 213,
  11, 215,
  11, 217,
  11, 220,
  11, 223,
  11, 225,
  11, 227,
  11, 230,
  11, 231,
  11, 235,
  11, 238,
  11, 240,
  11, 242,
  11, 250,
  11, 253,
  11, 254,
  11, 257,
  11, 259,
  11, 260,
  11, 261,
  11, 262,
  11, 263,
  11, 264,
  11, 268,
  11, 269,
  11, 270,
  11, 271,
  11, 272,
  11, 275,
  11, 278,
  11, 281,
  11, 282,
  11, 284,
  11, 286,
  11, 287,
  11, 288,
  11, 292,
  11, 295,
  11, 297,
  11, 299,
  11, 301,
  11, 303,
  11, 304,
  11, 307,
  11, 308,
  11, 309,
  11, 315,
  11, 316,
  11, 317,
  11, 319,
  11, 320,
  11, 323,
  11, 324,
  11, 325,
  11, 326,
  11, 328,
  11, 332,
  11, 336,
  11, 338,
  11, 339,
  11, 344,
  11, 345,
  11, 346,
  11, 347,
  11, 349,
  11, 351,
  11, 352,
  11, 354,
  11, 355,
  11, 358,
  11, 359,
  11, 368,
  11, 369,
  11, 370,
  11, 375,
  11, 376,
  11, 380,
  11, 381,
  11, 383,
  11, 385,
  11, 386,
  11, 389,
  11, 390,
  11, 395,
  11, 396,
  11, 401,
  11, 402,
  11, 403,
  11, 405,
  11, 407,
  11, 408,
  11, 409,
  11, 410,
  11, 411,
  11, 412,
  11, 413,
  11, 414,
  11, 417,
  11, 420,
  11, 422,
  11, 424,
  11, 427,
  11, 428,
  11, 431,
  11, 432,
  11, 433,
  11, 434,
  11, 436,
  11, 438,
  11, 439,
  11, 441,
  11, 451,
  11, 452,
  11, 454,
  11, 455,
  11, 460,
  11, 463,
  11, 464,
  11, 465,
  11, 469,
  11, 470,
  11, 475,
  11, 477,
  11, 479,
  11, 480,
  11, 482,
  11, 485,
  11, 486,
  11, 488,
  11, 489,
  11, 491,
  11, 492,
  11, 494,
  11, 496,
  11, 497,
  11, 498,
  11, 500,
  12, 15,
  12, 17,
  12, 18,
  12, 20,
  12, 21,
  12, 23,
  12, 25,
  12, 26,
  12, 27,
  12, 28,
  12, 30,
  12, 32,
  12, 33,
  12, 37,
  12, 38,
  12, 40,
  12, 45,
  12, 46,
  12, 49,
  12, 50,
  12, 51,
  12, 52,
  12, 53,
  12, 55,
  12, 61,
  12, 63,
  12, 64,
  12, 65,
  12, 67,
  12, 68,
  12, 70,
  12, 71,
  12, 75,
  12, 76,
  12, 77,
  12, 83,
  12, 85,
  12, 86,
  12, 87,
  12, 89,
  12, 90,
  12, 92,
  12, 95,
  12, 97,
  12, 98,
  12, 99,
  12, 101,
  12, 103,
  12, 107,
  12, 108,
  12, 110,
  12, 111,
  12, 112,
  12, 113,
  12, 114,
  12, 116,
  12, 119,
  12, 120,
  12, 122,
  12, 124,
  12, 126,
  12, 129,
  12, 132,
  12, 134,
  12, 135,
  12, 140,
  12, 141,
  12, 143,
  12, 144,
  12, 148,
  12, 150,
  12, 153,
  12, 154,
  12, 155,
  12, 156,
  12, 157,
  12, 158,
  12, 159,
  12, 160,
  12, 161,
  12, 164,
  12, 166,
  12, 168,
  12, 170,
  12, 174,
  12, 177,
  12, 179,
  12, 181,
  12, 182,
  12, 184,
  12, 185,
  12, 188,
  12, 189,
  12, 191,
  12, 192,
  12, 194,
  12, 195,
  12, 196,
  12, 197,
  12, 198,
  12, 199,
  12, 202,
  12, 206,
  12, 208,
  12, 209,
  12, 211,
  12, 212,
  12, 214,
  12, 217,
  12, 221,
  12, 224,
  12, 225,
  12, 226,
  12, 227,
  12, 230,
  12, 231,
  12, 235,
  12, 236,
  12, 238,
  12, 239,
  12, 240,
  12, 241,
  12, 243,
  12, 245,
  12, 247,
  12, 248,
  12, 249,
  12, 250,
  12, 254,
  12, 256,
  12, 262,
  12, 264,
  12, 266,
  12, 268,
  12, 270,
  12, 272,
  12, 273,
  12, 275,
  12, 277,
  12, 278,
  12, 280,
  12, 281,
  12, 282,
  12, 283,
  12, 284,
  12, 287,
  12, 289,
  12, 290,
  12, 291,
  12, 292,
  12, 294,
  12, 295,
  12, 296,
  12, 297,
  12, 299,
  12, 301,
  12, 303,
  12, 304,
  12, 306,
  12, 307,
  12, 308,
  12, 309,
  12, 310,
  12, 311,
  12, 312,
  12, 316,
  12, 317,
  12, 318,
  12, 319,
  12, 321,
  12, 323,
  12, 324,
  12, 325,
  12, 327,
  12, 328,
  12, 329,
  12, 332,
  12, 333,
  12, 336,
  12, 337,
  12, 341,
  12, 344,
  12, 347,
  12, 348,
  12, 349,
  12, 351,
  12, 352,
  12, 354,
  12, 355,
  12, 356,
  12, 359,
  12, 362,
  12, 363,
  12, 367,
  12, 369,
  12, 370,
  12, 371,
  12, 374,
  12, 375,
  12, 376,
  12, 377,
  12, 378,
  12, 379,
  12, 380,
  12, 381,
  12, 384,
  12, 385,
  12, 387,
  12, 389,
  12, 391,
  12, 393,
  12, 394,
  12, 396,
  12, 401,
  12, 402,
  12, 403,
  12, 404,
  12, 407,
  12, 410,
  12, 412,
  12, 413,
  12, 414,
  12, 418,
  12, 423,
  12, 425,
  12, 426,
  12, 427,
  12, 428,
  12, 429,
  12, 434,
  12, 435,
  12, 437,
  12, 439,
  12, 445,
  12, 448,
  12, 449,
  12, 453,
  12, 454,
  12, 457,
  12, 460,
  12, 462,
  12, 465,
  12, 467,
  12, 468,
  12, 469,
  12, 473,
  12, 476,
  12, 477,
  12, 478,
  12, 481,
  12, 482,
  12, 484,
  12, 485,
  12, 489,
  12, 491,
  12, 493,
  12, 494,
  12, 496,
  12, 497,
  12, 498,
  12, 500,
  13, 14,
  13, 16,
  13, 17,
  13, 18,
  13, 19,
  13, 24,
  13, 25,
  13, 26,
  13, 28,
  13, 29,
  13, 30,
  13, 31,
  13, 35,
  13, 37,
  13, 38,
  13, 40,
  13, 42,
  13, 43,
  13, 44,
  13, 45,
  13, 46,
  13, 50,
  13, 51,
  13, 52,
  13, 53,
  13, 55,
  13, 56,
  13, 57,
  13, 58,
  13, 59,
  13, 60,
  13, 62,
  13, 71,
  13, 73,
  13, 74,
  13, 75,
  13, 76,
  13, 77,
  13, 78,
  13, 79,
  13, 80,
  13, 81,
  13, 83,
  13, 92,
  13, 93,
  13, 95,
  13, 96,
  13, 97,
  13, 98,
  13, 100,
  13, 103,
  13, 106,
  13, 107,
  13, 108,
  13, 110,
  13, 111,
  13, 112,
  13, 114,
  13, 115,
  13, 117,
  13, 118,
  13, 119,
  13, 121,
  13, 122,
  13, 124,
  13, 126,
  13, 127,
  13, 129,
  13, 132,
  13, 136,
  13, 138,
  13, 140,
  13, 142,
  13, 144,
  13, 147,
  13, 149,
  13, 151,
  13, 155,
  13, 156,
  13, 158,
  13, 159,
  13, 162,
  13, 163,
  13, 169,
  13, 170,
  13, 171,
  13, 172,
  13, 173,
  13, 177,
  13, 179,
  13, 181,
  13, 182,
  13, 183,
  13, 184,
  13, 185,
  13, 186,
  13, 190,
  13, 194,
  13, 195,
  13, 196,
  13, 199,
  13, 200,
  13, 201,
  13, 204,
  13, 208,
  13, 209,
  13, 211,
  13, 212,
  13, 215,
  13, 217,
  13, 218,
  13, 223,
  13, 225,
  13, 227,
  13, 228,
  13, 229,
  13, 230,
  13, 232,
  13, 236,
  13, 237,
  13, 239,
  13, 240,
  13, 241,
  13, 242,
  13, 243,
  13, 248,
  13, 250,
  13, 251,
  13, 252,
  13, 253,
  13, 254,
  13, 256,
  13, 258,
  13, 259,
  13, 260,
  13, 261,
  13, 262,
  13, 264,
  13, 266,
  13, 270,
  13, 272,
  13, 274,
  13, 275,
  13, 279,
  13, 284,
  13, 287,
  13, 289,
  13, 291,
  13, 292,
  13, 293,
  13, 296,
  13, 297,
  13, 298,
  13, 299,
  13, 305,
  13, 310,
  13, 314,
  13, 315,
  13, 316,
  13, 318,
  13, 319,
  13, 321,
  13, 324,
  13, 325,
  13, 326,
  13, 330,
  13, 332,
  13, 333,
  13, 334,
  13, 338,
  13, 340,
  13, 341,
  13, 342,
  13, 343,
  13, 345,
  13, 349,
  13, 351,
  13, 353,
  13, 355,
  13, 358,
  13, 359,
  13, 361,
  13, 363,
  13, 364,
  13, 365,
  13, 366,
  13, 367,
  13, 368,
  13, 369,
  13, 371,
  13, 372,
  13, 373,
  13, 374,
  13, 377,
  13, 378,
  13, 383,
  13, 392,
  13, 395,
  13, 396,
  13, 397,
  13, 398,
  13, 401,
  13, 404,
  13, 405,
  13, 407,
  13, 409,
  13, 412,
  13, 413,
  13, 414,
  13, 417,
  13, 418,
  13, 420,
  13, 422,
  13, 426,
  13, 427,
  13, 428,
  13, 429,
  13, 430,
  13, 431,
  13, 432,
  13, 433,
  13, 435,
  13, 436,
  13, 438,
  13, 439,
  13, 440,
  13, 441,
  13, 442,
  13, 443,
  13, 444,
  13, 448,
  13, 450,
  13, 451,
  13, 455,
  13, 458,
  13, 459,
  13, 461,
  13, 462,
  13, 463,
  13, 465,
  13, 466,
  13, 467,
  13, 468,
  13, 470,
  13, 472,
  13, 473,
  13, 476,
  13, 477,
  13, 480,
  13, 481,
  13, 483,
  13, 485,
  13, 488,
  13, 490,
  13, 492,
  13, 497,
  13, 500,
  14, 20,
  14, 21,
  14, 22,
  14, 27,
  14, 29,
  14, 31,
  14, 35,
  14, 36,
  14, 39,
  14, 41,
  14, 42,
  14, 43,
  14, 44,
  14, 45,
  14, 49,
  14, 50,
  14, 51,
  14, 52,
  14, 53,
  14, 55,
  14, 58,
  14, 59,
  14, 60,
  14, 63,
  14, 68,
  14, 69,
  14, 70,
  14, 72,
  14, 73,
  14, 76,
  14, 78,
  14, 80,
  14, 81,
  14, 84,
  14, 89,
  14, 90,
  14, 91,
  14, 94,
  14, 95,
  14, 98,
  14, 104,
  14, 105,
  14, 107,
  14, 108,
  14, 110,
  14, 112,
  14, 113,
  14, 117,
  14, 122,
  14, 131,
  14, 132,
  14, 134,
  14, 137,
  14, 139,
  14, 140,
  14, 143,
  14, 145,
  14, 147,
  14, 149,
  14, 150,
  14, 155,
  14, 157,
  14, 158,
  14, 160,
  14, 163,
  14, 166,
  14, 168,
  14, 171,
  14, 180,
  14, 181,
  14, 184,
  14, 185,
  14, 186,
  14, 189,
  14, 190,
  14, 191,
  14, 196,
  14, 198,
  14, 200,
  14, 203,
  14, 204,
  14, 205,
  14, 207,
  14, 209,
  14, 210,
  14, 212,
  14, 213,
  14, 214,
  14, 215,
  14, 216,
  14, 217,
  14, 218,
  14, 219,
  14, 220,
  14, 225,
  14, 234,
  14, 235,
  14, 236,
  14, 237,
  14, 241,
  14, 243,
  14, 244,
  14, 246,
  14, 249,
  14, 251,
  14, 252,
  14, 253,
  14, 254,
  14, 258,
  14, 259,
  14, 260,
  14, 261,
  14, 262,
  14, 270,
  14, 271,
  14, 273,
  14, 274,
  14, 275,
  14, 279,
  14, 282,
  14, 283,
  14, 284,
  14, 286,
  14, 287,
  14, 288,
  14, 289,
  14, 292,
  14, 296,
  14, 297,
  14, 298,
  14, 301,
  14, 302,
  14, 303,
  14, 304,
  14, 305,
  14, 307,
  14, 310,
  14, 312,
  14, 317,
  14, 318,
  14, 320,
  14, 322,
  14, 323,
  14, 326,
  14, 327,
  14, 331,
  14, 333,
  14, 335,
  14, 336,
  14, 338,
  14, 342,
  14, 343,
  14, 345,
  14, 350,
  14, 352,
  14, 353,
  14, 355,
  14, 356,
  14, 357,
  14, 359,
  14, 360,
  14, 361,
  14, 362,
  14, 363,
  14, 366,
  14, 367,
  14, 370,
  14, 371,
  14, 372,
  14, 373,
  14, 375,
  14, 378,
  14, 380,
  14, 381,
  14, 383,
  14, 385,
  14, 386,
  14, 388,
  14, 390,
  14, 394,
  14, 395,
  14, 396,
  14, 397,
  14, 398,
  14, 400,
  14, 401,
  14, 403,
  14, 405,
  14, 406,
  14, 407,
  14, 411,
  14, 413,
  14, 414,
  14, 416,
  14, 418,
  14, 419,
  14, 420,
  14, 421,
  14, 422,
  14, 424,
  14, 428,
  14, 431,
  14, 432,
  14, 434,
  14, 435,
  14, 436,
  14, 438,
  14, 439,
  14, 440,
  14, 441,
  14, 442,
  14, 443,
  14, 444,
  14, 445,
  14, 446,
  14, 453,
  14, 454,
  14, 458,
  14, 459,
  14, 460,
  14, 462,
  14, 463,
  14, 464,
  14, 465,
  14, 466,
  14, 468,
  14, 469,
  14, 470,
  14, 472,
  14, 474,
  14, 475,
  14, 476,
  14, 479,
  14, 480,
  14, 481,
  14, 482,
  14, 484,
  14, 486,
  14, 488,
  14, 489,
  14, 490,
  14, 491,
  14, 494,
  14, 496,
  15, 19,
  15, 20,
  15, 23,
  15, 24,
  15, 25,
  15, 27,
  15, 30,
  15, 31,
  15, 32,
  15, 33,
  15, 34,
  15, 36,
  15, 37,
  15, 38,
  15, 42,
  15, 43,
  15, 47,
  15, 50,
  15, 52,
  15, 53,
  15, 58,
  15, 59,
  15, 60,
  15, 61,
  15, 63,
  15, 70,
  15, 71,
  15, 72,
  15, 76,
  15, 77,
  15, 82,
  15, 83,
  15, 84,
  15, 85,
  15, 86,
  15, 87,
  15, 89,
  15, 92,
  15, 94,
  15, 99,
  15, 100,
  15, 101,
  15, 102,
  15, 105,
  15, 106,
  15, 108,
  15, 109,
  15, 111,
  15, 113,
  15, 114,
  15, 115,
  15, 116,
  15, 119,
  15, 121,
  15, 122,
  15, 124,
  15, 126,
  15, 127,
  15, 129,
  15, 131,
  15, 133,
  15, 134,
  15, 136,
  15, 138,
  15, 139,
  15, 141,
  15, 143,
  15, 145,
  15, 147,
  15, 149,
  15, 153,
  15, 154,
  15, 156,
  15, 157,
  15, 159,
  15, 160,
  15, 163,
  15, 166,
  15, 168,
  15, 170,
  15, 171,
  15, 173,
  15, 174,
  15, 175,
  15, 177,
  15, 178,
  15, 179,
  15, 180,
  15, 184,
  15, 185,
  15, 186,
  15, 189,
  15, 190,
  15, 191,
  15, 193,
  15, 194,
  15, 196,
  15, 197,
  15, 200,
  15, 204,
  15, 205,
  15, 207,
  15, 208,
  15, 209,
  15, 212,
  15, 214,
  15, 216,
  15, 217,
  15, 218,
  15, 220,
  15, 223,
  15, 224,
  15, 226,
  15, 230,
  15, 231,
  15, 232,
  15, 234,
  15, 236,
  15, 238,
  15, 240,
  15, 242,
  15, 243,
  15, 244,
  15, 245,
  15, 250,
  15, 256,
  15, 260,
  15, 261,
  15, 263,
  15, 264,
  15, 269,
  15, 270,
  15, 271,
  15, 272,
  15, 274,
  15, 276,
  15, 278,
  15, 280,
  15, 281,
  15, 287,
  15, 290,
  15, 293,
  15, 294,
  15, 300,
  15, 301,
  15, 302,
  15, 305,
  15, 306,
  15, 312,
  15, 313,
  15, 314,
  15, 315,
  15, 316,
  15, 318,
  15, 322,
  15, 323,
  15, 324,
  15, 326,
  15, 327,
  15, 331,
  15, 332,
  15, 334,
  15, 335,
  15, 337,
  15, 338,
  15, 339,
  15, 340,
  15, 341,
  15, 345,
  15, 347,
  15, 350,
  15, 356,
  15, 358,
  15, 359,
  15, 361,
  15, 362,
  15, 364,
  15, 366,
  15, 367,
  15, 370,
  15, 371,
  15, 372,
  15, 374,
  15, 376,
  15, 378,
  15, 383,
  15, 384,
  15, 387,
  15, 388,
  15, 389,
  15, 393,
  15, 394,
  15, 395,
  15, 396,
  15, 397,
  15, 399,
  15, 401,
  15, 404,
  15, 406,
  15, 407,
  15, 409,
  15, 416,
  15, 418,
  15, 419,
  15, 420,
  15, 421,
  15, 422,
  15, 423,
  15, 424,
  15, 425,
  15, 426,
  15, 429,
  15, 432,
  15, 433,
  15, 434,
  15, 436,
  15, 442,
  15, 443,
  15, 447,
  15, 450,
  15, 456,
  15, 458,
  15, 462,
  15, 469,
  15, 473,
  15, 474,
  15, 476,
  15, 478,
  15, 484,
  15, 487,
  15, 488,
  15, 493,
  15, 496,
  15, 497,
  15, 498,
  16, 18,
  16, 19,
  16, 20,
  16, 23,
  16, 25,
  16, 27,
  16, 29,
  16, 31,
  16, 33,
  16, 34,
  16, 35,
  16, 39,
  16, 42,
  16, 43,
  16, 44,
  16, 45,
  16, 47,
  16, 48,
  16, 50,
  16, 52,
  16, 55,
  16, 58,
  16, 59,
  16, 65,
  16, 68,
  16, 70,
  16, 71,
  16, 73,
  16, 78,
  16, 79,
  16, 81,
  16, 84,
  16, 86,
  16, 87,
  16, 91,
  16, 92,
  16, 95,
  16, 96,
  16, 97,
  16, 99,
  16, 104,
  16, 105,
  16, 108,
  16, 109,
  16, 111,
  16, 115,
  16, 116,
  16, 117,
  16, 118,
  16, 120,
  16, 121,
  16, 124,
  16, 126,
  16, 127,
  16, 128,
  16, 131,
  16, 134,
  16, 135,
  16, 136,
  16, 138,
  16, 139,
  16, 140,
  16, 141,
  16, 143,
  16, 145,
  16, 146,
  16, 147,
  16, 148,
  16, 149,
  16, 153,
  16, 154,
  16, 156,
  16, 157,
  16, 158,
  16, 159,
  16, 160,
  16, 161,
  16, 162,
  16, 163,
  16, 164,
  16, 166,
  16, 170,
  16, 172,
  16, 173,
  16, 179,
  16, 182,
  16, 183,
  16, 184,
  16, 187,
  16, 188,
  16, 190,
  16, 191,
  16, 192,
  16, 195,
  16, 199,
  16, 202,
  16, 203,
  16, 204,
  16, 209,
  16, 212,
  16, 213,
  16, 215,
  16, 222,
  16, 224,
  16, 226,
  16, 227,
  16, 228,
  16, 229,
  16, 232,
  16, 234,
  16, 236,
  16, 240,
  16, 241,
  16, 242,
  16, 243,
  16, 244,
  16, 245,
  16, 246,
  16, 247,
  16, 250,
  16, 252,
  16, 254,
  16, 257,
  16, 259,
  16, 260,
  16, 262,
  16, 264,
  16, 266,
  16, 268,
  16, 269,
  16, 271,
  16, 272,
  16, 273,
  16, 275,
  16, 277,
  16, 278,
  16, 280,
  16, 282,
  16, 283,
  16, 284,
  16, 285,
  16, 286,
  16, 292,
  16, 296,
  16, 298,
  16, 301,
  16, 303,
  16, 304,
  16, 305,
  16, 307,
  16, 310,
  16, 312,
  16, 313,
  16, 314,
  16, 315,
  16, 318,
  16, 320,
  16, 321,
  16, 322,
  16, 323,
  16, 324,
  16, 327,
  16, 333,
  16, 334,
  16, 335,
  16, 338,
  16, 339,
  16, 342,
  16, 343,
  16, 349,
  16, 352,
  16, 353,
  16, 357,
  16, 359,
  16, 364,
  16, 368,
  16, 369,
  16, 370,
  16, 371,
  16, 379,
  16, 380,
  16, 383,
  16, 387,
  16, 389,
  16, 392,
  16, 393,
  16, 394,
  16, 395,
  16, 396,
  16, 397,
  16, 401,
  16, 404,
  16, 405,
  16, 407,
  16, 410,
  16, 411,
  16, 413,
  16, 415,
  16, 419,
  16, 424,
  16, 426,
  16, 431,
  16, 434,
  16, 438,
  16, 439,
  16, 442,
  16, 443,
  16, 444,
  16, 446,
  16, 447,
  16, 449,
  16, 450,
  16, 451,
  16, 454,
  16, 456,
  16, 459,
  16, 462,
  16, 465,
  16, 466,
  16, 468,
  16, 469,
  16, 475,
  16, 479,
  16, 480,
  16, 483,
  16, 484,
  16, 490,
  16, 491,
  16, 495,
  16, 498,
  16, 500,
  17, 18,
  17, 19,
  17, 21,
  17, 22,
  17, 28,
  17, 32,
  17, 33,
  17, 34,
  17, 36,
  17, 40,
  17, 42,
  17, 44,
  17, 48,
  17, 50,
  17, 52,
  17, 53,
  17, 54,
  17, 56,
  17, 58,
  17, 59,
  17, 60,
  17, 63,
  17, 67,
  17, 68,
  17, 69,
  17, 70,
  17, 72,
  17, 76,
  17, 78,
  17, 80,
  17, 82,
  17, 84,
  17, 86,
  17, 88,
  17, 89,
  17, 93,
  17, 95,
  17, 96,
  17, 97,
  17, 98,
  17, 100,
  17, 103,
  17, 104,
  17, 107,
  17, 109,
  17, 110,
  17, 112,
  17, 114,
  17, 115,
  17, 118,
  17, 119,
  17, 123,
  17, 128,
  17, 129,
  17, 130,
  17, 133,
  17, 134,
  17, 135,
  17, 136,
  17, 137,
  17, 138,
  17, 139,
  17, 140,
  17, 142,
  17, 144,
  17, 145,
  17, 146,
  17, 147,
  17, 150,
  17, 152,
  17, 153,
  17, 157,
  17, 158,
  17, 160,
  17, 161,
  17, 162,
  17, 164,
  17, 168,
  17, 170,
  17, 171,
  17, 172,
  17, 173,
  17, 182,
  17, 184,
  17, 188,
  17, 191,
  17, 192,
  17, 194,
  17, 195,
  17, 198,
  17, 200,
  17, 201,
  17, 202,
  17, 204,
  17, 206,
  17, 208,
  17, 209,
  17, 219,
  17, 223,
  17, 224,
  17, 225,
  17, 226,
  17, 227,
  17, 229,
  17, 230,
  17, 232,
  17, 233,
  17, 234,
  17, 235,
  17, 236,
  17, 240,
  17, 243,
  17, 245,
  17, 246,
  17, 248,
  17, 249,
  17, 252,
  17, 253,
  17, 254,
  17, 255,
  17, 256,
  17, 257,
  17, 258,
  17, 262,
  17, 263,
  17, 264,
  17, 273,
  17, 275,
  17, 277,
  17, 279,
  17, 281,
  17, 282,
  17, 284,
  17, 285,
  17, 286,
  17, 292,
  17, 295,
  17, 296,
  17, 299,
  17, 301,
  17, 303,
  17, 304,
  17, 305,
  17, 306,
  17, 307,
  17, 308,
  17, 312,
  17, 313,
  17, 315,
  17, 318,
  17, 319,
  17, 321,
  17, 322,
  17, 323,
  17, 327,
  17, 328,
  17, 329,
  17, 333,
  17, 334,
  17, 336,
  17, 337,
  17, 347,
  17, 348,
  17, 351,
  17, 353,
  17, 354,
  17, 355,
  17, 356,
  17, 357,
  17, 361,
  17, 364,
  17, 365,
  17, 366,
  17, 367,
  17, 372,
  17, 373,
  17, 376,
  17, 377,
  17, 378,
  17, 380,
  17, 382,
  17, 383,
  17, 385,
  17, 386,
  17, 387,
  17, 389,
  17, 390,
  17, 391,
  17, 395,
  17, 396,
  17, 397,
  17, 399,
  17, 401,
  17, 402,
  17, 403,
  17, 404,
  17, 410,
  17, 413,
  17, 414,
  17, 418,
  17, 422,
  17, 424,
  17, 425,
  17, 427,
  17, 430,
  17, 433,
  17, 434,
  17, 437,
  17, 439,
  17, 440,
  17, 441,
  17, 442,
  17, 443,
  17, 444,
  17, 446,
  17, 453,
  17, 458,
  17, 459,
  17, 460,
  17, 465,
  17, 467,
  17, 469,
  17, 470,
  17, 471,
  17, 472,
  17, 474,
  17, 478,
  17, 479,
  17, 481,
  17, 484,
  17, 489,
  17, 490,
  17, 494,
  17, 497,
  17, 499,
  18, 20,
  18, 22,
  18, 24,
  18, 25,
  18, 26,
  18, 32,
  18, 34,
  18, 35,
  18, 41,
  18, 42,
  18, 43,
  18, 44,
  18, 45,
  18, 46,
  18, 48,
  18, 52,
  18, 54,
  18, 62,
  18, 63,
  18, 64,
  18, 67,
  18, 68,
  18, 70,
  18, 71,
  18, 76,
  18, 78,
  18, 80,
  18, 89,
  18, 91,
  18, 93,
  18, 94,
  18, 95,
  18, 98,
  18, 99,
  18, 100,
  18, 102,
  18, 105,
  18, 107,
  18, 108,
  18, 109,
  18, 111,
  18, 112,
  18, 113,
  18, 116,
  18, 117,
  18, 120,
  18, 121,
  18, 122,
  18, 124,
  18, 129,
  18, 130,
  18, 133,
  18, 134,
  18, 135,
  18, 137,
  18, 138,
  18, 139,
  18, 141,
  18, 143,
  18, 145,
  18, 146,
  18, 147,
  18, 148,
  18, 149,
  18, 154,
  18, 160,
  18, 162,
  18, 163,
  18, 166,
  18, 174,
  18, 177,
  18, 179,
  18, 180,
  18, 184,
  18, 186,
  18, 188,
  18, 191,
  18, 192,
  18, 193,
  18, 195,
  18, 200,
  18, 202,
  18, 205,
  18, 206,
  18, 208,
  18, 209,
  18, 210,
  18, 211,
  18, 214,
  18, 216,
  18, 220,
  18, 221,
  18, 223,
  18, 224,
  18, 225,
  18, 227,
  18, 229,
  18, 231,
  18, 233,
  18, 234,
  18, 235,
  18, 236,
  18, 237,
  18, 238,
  18, 240,
  18, 241,
  18, 242,
  18, 243,
  18, 245,
  18, 246,
  18, 247,
  18, 249,
  18, 251,
  18, 252,
  18, 254,
  18, 259,
  18, 261,
  18, 262,
  18, 270,
  18, 274,
  18, 278,
  18, 279,
  18, 280,
  18, 281,
  18, 282,
  18, 285,
  18, 288,
  18, 289,
  18, 291,
  18, 292,
  18, 293,
  18, 295,
  18, 297,
  18, 299,
  18, 302,
  18, 303,
  18, 307,
  18, 308,
  18, 309,
  18, 311,
  18, 313,
  18, 314,
  18, 317,
  18, 320,
  18, 321,
  18, 322,
  18, 323,
  18, 324,
  18, 329,
  18, 330,
  18, 334,
  18, 337,
  18, 338,
  18, 342,
  18, 345,
  18, 347,
  18, 352,
  18, 353,
  18, 354,
  18, 355,
  18, 356,
  18, 357,
  18, 358,
  18, 359,
  18, 360,
  18, 361,
  18, 362,
  18, 366,
  18, 369,
  18, 370,
  18, 371,
  18, 372,
  18, 373,
  18, 376,
  18, 377,
  18, 378,
  18, 379,
  18, 381,
  18, 382,
  18, 383,
  18, 384,
  18, 388,
  18, 389,
  18, 391,
  18, 393,
  18, 397,
  18, 398,
  18, 399,
  18, 400,
  18, 401,
  18, 403,
  18, 405,
  18, 407,
  18, 408,
  18, 410,
  18, 413,
  18, 414,
  18, 419,
  18, 420,
  18, 422,
  18, 424,
  18, 425,
  18, 426,
  18, 427,
  18, 428,
  18, 430,
  18, 432,
  18, 433,
  18, 434,
  18, 438,
  18, 439,
  18, 441,
  18, 442,
  18, 443,
  18, 446,
  18, 447,
  18, 448,
  18, 449,
  18, 452,
  18, 453,
  18, 454,
  18, 455,
  18, 457,
  18, 458,
  18, 460,
  18, 462,
  18, 465,
  18, 466,
  18, 467,
  18, 468,
  18, 470,
  18, 472,
  18, 473,
  18, 474,
  18, 476,
  18, 477,
  18, 482,
  18, 483,
  18, 487,
  18, 488,
  18, 489,
  18, 492,
  18, 494,
  18, 495,
  19, 20,
  19, 21,
  19, 30,
  19, 31,
  19, 33,
  19, 37,
  19, 39,
  19, 44,
  19, 47,
  19, 50,
  19, 55,
  19, 56,
  19, 58,
  19, 59,
  19, 61,
  19, 62,
  19, 63,
  19, 65,
  19, 68,
  19, 70,
  19, 71,
  19, 72,
  19, 73,
  19, 75,
  19, 77,
  19, 82,
  19, 85,
  19, 92,
  19, 94,
  19, 96,
  19, 98,
  19, 101,
  19, 102,
  19, 105,
  19, 107,
  19, 108,
  19, 109,
  19, 113,
  19, 118,
  19, 121,
  19, 122,
  19, 125,
  19, 127,
  19, 129,
  19, 134,
  19, 135,
  19, 137,
  19, 138,
  19, 139,
  19, 140,
  19, 142,
  19, 145,
  19, 146,
  19, 147,
  19, 148,
  19, 150,
  19, 153,
  19, 154,
  19, 155,
  19, 156,
  19, 158,
  19, 161,
  19, 162,
  19, 163,
  19, 166,
  19, 170,
  19, 171,
  19, 172,
  19, 177,
  19, 179,
  19, 180,
  19, 181,
  19, 182,
  19, 186,
  19, 187,
  19, 190,
  19, 192,
  19, 193,
  19, 201,
  19, 202,
  19, 205,
  19, 206,
  19, 207,
  19, 208,
  19, 209,
  19, 210,
  19, 213,
  19, 214,
  19, 215,
  19, 216,
  19, 221,
  19, 223,
  19, 224,
  19, 226,
  19, 227,
  19, 228,
  19, 229,
  19, 230,
  19, 231,
  19, 238,
  19, 240,
  19, 241,
  19, 242,
  19, 243,
  19, 244,
  19, 246,
  19, 247,
  19, 251,
  19, 252,
  19, 253,
  19, 254,
  19, 255,
  19, 256,
  19, 257,
  19, 258,
  19, 259,
  19, 260,
  19, 262,
  19, 264,
  19, 267,
  19, 268,
  19, 271,
  19, 272,
  19, 274,
  19, 276,
  19, 277,
  19, 282,
  19, 283,
  19, 285,
  19, 289,
  19, 293,
  19, 296,
  19, 298,
  19, 301,
  19, 304,
  19, 309,
  19, 310,
  19, 312,
  19, 317,
  19, 318,
  19, 321,
  19, 325,
  19, 326,
  19, 329,
  19, 331,
  19, 332,
  19, 337,
  19, 338,
  19, 339,
  19, 347,
  19, 348,
  19, 349,
  19, 351,
  19, 354,
  19, 355,
  19, 356,
  19, 358,
  19, 362,
  19, 364,
  19, 366,
  19, 375,
  19, 376,
  19, 377,
  19, 378,
  19, 379,
  19, 380,
  19, 382,
  19, 383,
  19, 384,
  19, 385,
  19, 389,
  19, 390,
  19, 392,
  19, 396,
  19, 398,
  19, 399,
  19, 400,
  19, 404,
  19, 406,
  19, 407,
  19, 410,
  19, 411,
  19, 414,
  19, 415,
  19, 418,
  19, 419,
  19, 420,
  19, 421,
  19, 424,
  19, 425,
  19, 426,
  19, 427,
  19, 429,
  19, 438,
  19, 442,
  19, 443,
  19, 444,
  19, 445,
  19, 446,
  19, 450,
  19, 451,
  19, 454,
  19, 457,
  19, 458,
  19, 459,
  19, 461,
  19, 462,
  19, 463,
  19, 464,
  19, 465,
  19, 466,
  19, 468,
  19, 469,
  19, 470,
  19, 471,
  19, 473,
  19, 474,
  19, 476,
  19, 478,
  19, 480,
  19, 484,
  19, 485,
  19, 488,
  19, 489,
  19, 490,
  19, 491,
  19, 492,
  19, 493,
  19, 494,
  19, 495,
  19, 499,
  20, 21,
  20, 23,
  20, 24,
  20, 26,
  20, 28,
  20, 30,
  20, 32,
  20, 34,
  20, 35,
  20, 37,
  20, 38,
  20, 39,
  20, 42,
  20, 47,
  20, 48,
  20, 52,
  20, 57,
  20, 61,
  20, 63,
  20, 64,
  20, 68,
  20, 69,
  20, 70,
  20, 71,
  20, 73,
  20, 74,
  20, 75,
  20, 76,
  20, 77,
  20, 82,
  20, 84,
  20, 86,
  20, 88,
  20, 89,
  20, 92,
  20, 93,
  20, 94,
  20, 95,
  20, 96,
  20, 100,
  20, 101,
  20, 102,
  20, 107,
  20, 108,
  20, 109,
  20, 111,
  20, 112,
  20, 113,
  20, 114,
  20, 115,
  20, 116,
  20, 117,
  20, 124,
  20, 126,
  20, 129,
  20, 131,
  20, 132,
  20, 136,
  20, 142,
  20, 143,
  20, 145,
  20, 146,
  20, 148,
  20, 149,
  20, 150,
  20, 152,
  20, 161,
  20, 162,
  20, 165,
  20, 168,
  20, 170,
  20, 171,
  20, 172,
  20, 176,
  20, 179,
  20, 180,
  20, 181,
  20, 183,
  20, 184,
  20, 185,
  20, 186,
  20, 187,
  20, 192,
  20, 193,
  20, 195,
  20, 196,
  20, 201,
  20, 203,
  20, 206,
  20, 209,
  20, 212,
  20, 217,
  20, 219,
  20, 221,
  20, 222,
  20, 225,
  20, 226,
  20, 229,
  20, 230,
  20, 234,
  20, 236,
  20, 237,
  20, 238,
  20, 240,
  20, 241,
  20, 244,
  20, 245,
  20, 246,
  20, 248,
  20, 249,
  20, 251,
  20, 252,
  20, 253,
  20, 255,
  20, 257,
  20, 259,
  20, 261,
  20, 262,
  20, 264,
  20, 267,
  20, 268,
  20, 271,
  20, 273,
  20, 274,
  20, 275,
  20, 279,
  20, 280,
  20, 282,
  20, 283,
  20, 285,
  20, 286,
  20, 288,
  20, 289,
  20, 290,
  20, 292,
  20, 294,
  20, 296,
  20, 298,
  20, 304,
  20, 306,
  20, 309,
  20, 310,
  20, 314,
  20, 317,
  20, 318,
  20, 319,
  20, 320,
  20, 322,
  20, 325,
  20, 327,
  20, 328,
  20, 329,
  20, 331,
  20, 336,
  20, 337,
  20, 338,
  20, 339,
  20, 340,
  20, 346,
  20, 347,
  20, 349,
  20, 350,
  20, 351,
  20, 355,
  20, 356,
  20, 357,
  20, 358,
  20, 359,
  20, 360,
  20, 363,
  20, 366,
  20, 367,
  20, 369,
  20, 370,
  20, 375,
  20, 376,
  20, 380,
  20, 384,
  20, 385,
  20, 387,
  20, 389,
  20, 390,
  20, 392,
  20, 393,
  20, 394,
  20, 396,
  20, 398,
  20, 403,
  20, 404,
  20, 407,
  20, 408,
  20, 418,
  20, 421,
  20, 422,
  20, 424,
  20, 425,
  20, 429,
  20, 430,
  20, 433,
  20, 435,
  20, 436,
  20, 437,
  20, 440,
  20, 441,
  20, 443,
  20, 444,
  20, 445,
  20, 450,
  20, 451,
  20, 452,
  20, 453,
  20, 454,
  20, 456,
  20, 461,
  20, 462,
  20, 465,
  20, 467,
  20, 470,
  20, 471,
  20, 474,
  20, 477,
  20, 479,
  20, 481,
  20, 482,
  20, 484,
  20, 486,
  20, 490,
  20, 492,
  20, 493,
  20, 494,
  20, 499,
  21, 23,
  21, 24,
  21, 26,
  21, 27,
  21, 28,
  21, 32,
  21, 37,
  21, 39,
  21, 41,
  21, 43,
  21, 45,
  21, 48,
  21, 49,
  21, 53,
  21, 55,
  21, 57,
  21, 58,
  21, 59,
  21, 60,
  21, 62,
  21, 63,
  21, 64,
  21, 65,
  21, 70,
  21, 71,
  21, 74,
  21, 77,
  21, 78,
  21, 79,
  21, 80,
  21, 81,
  21, 83,
  21, 84,
  21, 85,
  21, 86,
  21, 87,
  21, 88,
  21, 90,
  21, 91,
  21, 96,
  21, 97,
  21, 98,
  21, 100,
  21, 105,
  21, 106,
  21, 115,
  21, 118,
  21, 119,
  21, 121,
  21, 122,
  21, 124,
  21, 125,
  21, 126,
  21, 128,
  21, 129,
  21, 130,
  21, 135,
  21, 139,
  21, 142,
  21, 143,
  21, 144,
  21, 145,
  21, 146,
  21, 148,
  21, 151,
  21, 152,
  21, 153,
  21, 154,
  21, 155,
  21, 158,
  21, 161,
  21, 162,
  21, 164,
  21, 169,
  21, 170,
  21, 172,
  21, 175,
  21, 176,
  21, 178,
  21, 182,
  21, 183,
  21, 184,
  21, 185,
  21, 189,
  21, 192,
  21, 195,
  21, 198,
  21, 200,
  21, 201,
  21, 203,
  21, 204,
  21, 205,
  21, 208,
  21, 209,
  21, 210,
  21, 213,
  21, 215,
  21, 216,
  21, 217,
  21, 218,
  21, 220,
  21, 221,
  21, 222,
  21, 225,
  21, 226,
  21, 228,
  21, 229,
  21, 231,
  21, 232,
  21, 234,
  21, 236,
  21, 240,
  21, 243,
  21, 244,
  21, 245,
  21, 246,
  21, 248,
  21, 251,
  21, 252,
  21, 254,
  21, 255,
  21, 259,
  21, 260,
  21, 261,
  21, 264,
  21, 265,
  21, 266,
  21, 268,
  21, 270,
  21, 276,
  21, 277,
  21, 278,
  21, 279,
  21, 281,
  21, 283,
  21, 284,
  21, 285,
  21, 288,
  21, 289,
  21, 291,
  21, 294,
  21, 297,
  21, 299,
  21, 301,
  21, 303,
  21, 305,
  21, 306,
  21, 308,
  21, 309,
  21, 310,
  21, 311,
  21, 312,
  21, 313,
  21, 315,
  21, 316,
  21, 317,
  21, 324,
  21, 329,
  21, 330,
  21, 331,
  21, 333,
  21, 334,
  21, 335,
  21, 337,
  21, 339,
  21, 342,
  21, 343,
  21, 344,
  21, 346,
  21, 350,
  21, 353,
  21, 355,
  21, 356,
  21, 361,
  21, 362,
  21, 363,
  21, 365,
  21, 367,
  21, 369,
  21, 372,
  21, 376,
  21, 377,
  21, 378,
  21, 380,
  21, 381,
  21, 382,
  21, 383,
  21, 384,
  21, 385,
  21, 386,
  21, 387,
  21, 391,
  21, 396,
  21, 398,
  21, 406,
  21, 408,
  21, 409,
  21, 410,
  21, 412,
  21, 413,
  21, 415,
  21, 416,
  21, 417,
  21, 420,
  21, 421,
  21, 425,
  21, 431,
  21, 434,
  21, 438,
  21, 440,
  21, 441,
  21, 444,
  21, 448,
  21, 449,
  21, 451,
  21, 453,
  21, 458,
  21, 459,
  21, 460,
  21, 461,
  21, 463,
  21, 464,
  21, 468,
  21, 470,
  21, 472,
  21, 475,
  21, 478,
  21, 479,
  21, 482,
  21, 484,
  21, 485,
  21, 486,
  21, 491,
  21, 496,
  21, 499,
  21, 500,
  22, 23,
  22, 25,
  22, 26,
  22, 27,
  22, 29,
  22, 33,
  22, 37,
  22, 43,
  22, 45,
  22, 48,
  22, 51,
  22, 56,
  22, 60,
  22, 64,
  22, 65,
  22, 67,
  22, 68,
  22, 71,
  22, 72,
  22, 73,
  22, 75,
  22, 76,
  22, 77,
  22, 83,
  22, 84,
  22, 88,
  22, 89,
  22, 90,
  22, 93,
  22, 94,
  22, 98,
  22, 101,
  22, 102,
  22, 106,
  22, 107,
  22, 109,
  22, 110,
  22, 111,
  22, 112,
  22, 119,
  22, 122,
  22, 124,
  22, 126,
  22, 127,
  22, 130,
  22, 132,
  22, 133,
  22, 136,
  22, 137,
  22, 140,
  22, 142,
  22, 147,
  22, 148,
  22, 151,
  22, 153,
  22, 154,
  22, 155,
  22, 157,
  22, 161,
  22, 163,
  22, 164,
  22, 167,
  22, 170,
  22, 171,
  22, 173,
  22, 178,
  22, 181,
  22, 182,
  22, 184,
  22, 185,
  22, 189,
  22, 191,
  22, 194,
  22, 195,
  22, 196,
  22, 197,
  22, 203,
  22, 204,
  22, 205,
  22, 206,
  22, 210,
  22, 211,
  22, 215,
  22, 216,
  22, 217,
  22, 218,
  22, 219,
  22, 220,
  22, 221,
  22, 224,
  22, 225,
  22, 226,
  22, 227,
  22, 229,
  22, 230,
  22, 231,
  22, 232,
  22, 233,
  22, 234,
  22, 235,
  22, 237,
  22, 238,
  22, 239,
  22, 240,
  22, 241,
  22, 243,
  22, 246,
  22, 247,
  22, 249,
  22, 250,
  22, 251,
  22, 253,
  22, 255,
  22, 257,
  22, 267,
  22, 269,
  22, 271,
  22, 275,
  22, 281,
  22, 285,
  22, 286,
  22, 293,
  22, 295,
  22, 299,
  22, 301,
  22, 302,
  22, 307,
  22, 308,
  22, 310,
  22, 315,
  22, 316,
  22, 319,
  22, 321,
  22, 326,
  22, 328,
  22, 329,
  22, 332,
  22, 334,
  22, 335,
  22, 336,
  22, 337,
  22, 338,
  22, 341,
  22, 344,
  22, 345,
  22, 346,
  22, 347,
  22, 348,
  22, 350,
  22, 352,
  22, 354,
  22, 355,
  22, 356,
  22, 357,
  22, 359,
  22, 363,
  22, 364,
  22, 367,
  22, 369,
  22, 371,
  22, 372,
  22, 377,
  22, 378,
  22, 379,
  22, 380,
  22, 381,
  22, 382,
  22, 383,
  22, 385,
  22, 386,
  22, 387,
  22, 391,
  22, 392,
  22, 394,
  22, 396,
  22, 397,
  22, 400,
  22, 401,
  22, 410,
  22, 416,
  22, 418,
  22, 419,
  22, 420,
  22, 422,
  22, 423,
  22, 427,
  22, 429,
  22, 430,
  22, 436,
  22, 438,
  22, 439,
  22, 440,
  22, 441,
  22, 444,
  22, 447,
  22, 448,
  22, 451,
  22, 452,
  22, 454,
  22, 455,
  22, 457,
  22, 458,
  22, 463,
  22, 464,
  22, 468,
  22, 469,
  22, 471,
  22, 478,
  22, 480,
  22, 481,
  22, 482,
  22, 486,
  22, 490,
  22, 491,
  22, 493,
  22, 494,
  22, 495,
  23, 24,
  23, 26,
  23, 27,
  23, 30,
  23, 32,
  23, 37,
  23, 40,
  23, 42,
  23, 48,
  23, 50,
  23, 54,
  23, 55,
  23, 56,
  23, 60,
  23, 62,
  23, 63,
  23, 65,
  23, 67,
  23, 70,
  23, 71,
  23, 72,
  23, 73,
  23, 74,
  23, 75,
  23, 82,
  23, 88,
  23, 89,
  23, 96,
  23, 97,
  23, 98,
  23, 100,
  23, 103,
  23, 106,
  23, 107,
  23, 108,
  23, 111,
  23, 114,
  23, 117,
  23, 119,
  23, 120,
  23, 122,
  23, 123,
  23, 126,
  23, 128,
  23, 133,
  23, 135,
  23, 136,
  23, 139,
  23, 141,
  23, 142,
  23, 144,
  23, 145,
  23, 146,
  23, 152,
  23, 153,
  23, 155,
  23, 156,
  23, 160,
  23, 162,
  23, 164,
  23, 165,
  23, 166,
  23, 167,
  23, 170,
  23, 173,
  23, 174,
  23, 175,
  23, 177,
  23, 178,
  23, 180,
  23, 185,
  23, 186,
  23, 187,
  23, 189,
  23, 192,
  23, 194,
  23, 195,
  23, 196,
  23, 198,
  23, 200,
  23, 201,
  23, 202,
  23, 204,
  23, 205,
  23, 207,
  23, 208,
  23, 209,
  23, 214,
  23, 217,
  23, 220,
  23, 221,
  23, 223,
  23, 224,
  23, 225,
  23, 226,
  23, 227,
  23, 228,
  23, 229,
  23, 230,
  23, 231,
  23, 233,
  23, 234,
  23, 236,
  23, 238,
  23, 239,
  23, 240,
  23, 242,
  23, 243,
  23, 244,
  23, 247,
  23, 250,
  23, 251,
  23, 252,
  23, 256,
  23, 261,
  23, 262,
  23, 263,
  23, 264,
  23, 269,
  23, 270,
  23, 271,
  23, 274,
  23, 276,
  23, 278,
  23, 280,
  23, 283,
  23, 284,
  23, 285,
  23, 286,
  23, 289,
  23, 290,
  23, 291,
  23, 292,
  23, 294,
  23, 298,
  23, 301,
  23, 302,
  23, 305,
  23, 306,
  23, 307,
  23, 308,
  23, 310,
  23, 314,
  23, 316,
  23, 317,
  23, 321,
  23, 323,
  23, 324,
  23, 325,
  23, 329,
  23, 330,
  23, 331,
  23, 332,
  23, 334,
  23, 336,
  23, 339,
  23, 342,
  23, 344,
  23, 345,
  23, 347,
  23, 350,
  23, 351,
  23, 352,
  23, 359,
  23, 362,
  23, 363,
  23, 366,
  23, 367,
  23, 368,
  23, 369,
  23, 370,
  23, 371,
  23, 373,
  23, 374,
  23, 375,
  23, 377,
  23, 378,
  23, 379,
  23, 380,
  23, 381,
  23, 382,
  23, 383,
  23, 388,
  23, 392,
  23, 393,
  23, 397,
  23, 398,
  23, 404,
  23, 406,
  23, 407,
  23, 408,
  23, 410,
  23, 411,
  23, 412,
  23, 414,
  23, 415,
  23, 417,
  23, 420,
  23, 421,
  23, 422,
  23, 424,
  23, 425,
  23, 428,
  23, 430,
  23, 431,
  23, 432,
  23, 437,
  23, 440,
  23, 442,
  23, 443,
  23, 448,
  23, 449,
  23, 450,
  23, 451,
  23, 454,
  23, 456,
  23, 458,
  23, 459,
  23, 460,
  23, 462,
  23, 463,
  23, 466,
  23, 467,
  23, 469,
  23, 472,
  23, 473,
  23, 476,
  23, 477,
  23, 478,
  23, 481,
  23, 485,
  23, 486,
  23, 487,
  23, 489,
  23, 490,
  23, 493,
  23, 494,
  23, 496,
  23, 497,
  24, 25,
  24, 26,
  24, 28,
  24, 29,
  24, 30,
  24, 31,
  24, 32,
  24, 33,
  24, 34,
  24, 36,
  24, 37,
  24, 39,
  24, 40,
  24, 42,
  24, 44,
  24, 47,
  24, 57,
  24, 58,
  24, 62,
  24, 63,
  24, 65,
  24, 66,
  24, 70,
  24, 71,
  24, 72,
  24, 73,
  24, 74,
  24, 75,
  24, 76,
  24, 77,
  24, 81,
  24, 85,
  24, 86,
  24, 89,
  24, 91,
  24, 92,
  24, 94,
  24, 96,
  24, 97,
  24, 98,
  24, 99,
  24, 100,
  24, 101,
  24, 102,
  24, 103,
  24, 104,
  24, 106,
  24, 108,
  24, 111,
  24, 112,
  24, 113,
  24, 114,
  24, 115,
  24, 121,
  24, 124,
  24, 126,
  24, 127,
  24, 128,
  24, 129,
  24, 130,
  24, 131,
  24, 133,
  24, 134,
  24, 138,
  24, 139,
  24, 140,
  24, 141,
  24, 142,
  24, 152,
  24, 154,
  24, 155,
  24, 157,
  24, 159,
  24, 160,
  24, 162,
  24, 165,
  24, 166,
  24, 168,
  24, 169,
  24, 171,
  24, 172,
  24, 173,
  24, 177,
  24, 180,
  24, 184,
  24, 185,
  24, 186,
  24, 189,
  24, 190,
  24, 191,
  24, 192,
  24, 193,
  24, 196,
  24, 198,
  24, 200,
  24, 202,
  24, 203,
  24, 204,
  24, 206,
  24, 207,
  24, 208,
  24, 209,
  24, 210,
  24, 215,
  24, 217,
  24, 220,
  24, 221,
  24, 224,
  24, 225,
  24, 227,
  24, 228,
  24, 229,
  24, 232,
  24, 236,
  24, 237,
  24, 239,
  24, 241,
  24, 245,
  24, 246,
  24, 247,
  24, 252,
  24, 253,
  24, 255,
  24, 256,
  24, 260,
  24, 261,
  24, 263,
  24, 264,
  24, 267,
  24, 269,
  24, 271,
  24, 277,
  24, 285,
  24, 288,
  24, 290,
  24, 291,
  24, 294,
  24, 295,
  24, 296,
  24, 298,
  24, 299,
  24, 301,
  24, 305,
  24, 306,
  24, 307,
  24, 313,
  24, 316,
  24, 317,
  24, 318,
  24, 320,
  24, 321,
  24, 323,
  24, 327,
  24, 328,
  24, 329,
  24, 331,
  24, 335,
  24, 336,
  24, 340,
  24, 343,
  24, 344,
  24, 345,
  24, 349,
  24, 350,
  24, 359,
  24, 363,
  24, 364,
  24, 365,
  24, 373,
  24, 374,
  24, 378,
  24, 379,
  24, 380,
  24, 382,
  24, 383,
  24, 384,
  24, 385,
  24, 387,
  24, 388,
  24, 390,
  24, 392,
  24, 394,
  24, 395,
  24, 397,
  24, 398,
  24, 399,
  24, 405,
  24, 408,
  24, 409,
  24, 414,
  24, 418,
  24, 421,
  24, 424,
  24, 427,
  24, 428,
  24, 429,
  24, 433,
  24, 434,
  24, 437,
  24, 438,
  24, 439,
  24, 441,
  24, 446,
  24, 451,
  24, 453,
  24, 457,
  24, 462,
  24, 464,
  24, 465,
  24, 468,
  24, 469,
  24, 470,
  24, 472,
  24, 476,
  24, 477,
  24, 478,
  24, 481,
  24, 482,
  24, 484,
  24, 485,
  24, 486,
  24, 489,
  24, 491,
  24, 494,
  24, 495,
  24, 497,
  24, 498,
  24, 499,
  25, 26,
  25, 30,
  25, 36,
  25, 37,
  25, 41,
  25, 42,
  25, 43,
  25, 44,
  25, 46,
  25, 49,
  25, 50,
  25, 54,
  25, 55,
  25, 57,
  25, 58,
  25, 59,
  25, 60,
  25, 61,
  25, 62,
  25, 64,
  25, 66,
  25, 68,
  25, 72,
  25, 73,
  25, 75,
  25, 79,
  25, 84,
  25, 85,
  25, 88,
  25, 89,
  25, 90,
  25, 91,
  25, 93,
  25, 101,
  25, 102,
  25, 103,
  25, 105,
  25, 107,
  25, 110,
  25, 112,
  25, 113,
  25, 114,
  25, 117,
  25, 119,
  25, 120,
  25, 121,
  25, 124,
  25, 125,
  25, 126,
  25, 127,
  25, 130,
  25, 131,
  25, 135,
  25, 140,
  25, 141,
  25, 142,
  25, 144,
  25, 145,
  25, 146,
  25, 147,
  25, 150,
  25, 152,
  25, 153,
  25, 156,
  25, 157,
  25, 165,
  25, 170,
  25, 171,
  25, 172,
  25, 173,
  25, 175,
  25, 176,
  25, 181,
  25, 183,
  25, 185,
  25, 191,
  25, 193,
  25, 194,
  25, 195,
  25, 196,
  25, 197,
  25, 198,
  25, 199,
  25, 203,
  25, 204,
  25, 206,
  25, 208,
  25, 213,
  25, 220,
  25, 221,
  25, 222,
  25, 223,
  25, 224,
  25, 226,
  25, 228,
  25, 231,
  25, 233,
  25, 234,
  25, 237,
  25, 243,
  25, 244,
  25, 246,
  25, 247,
  25, 250,
  25, 254,
  25, 255,
  25, 256,
  25, 263,
  25, 264,
  25, 265,
  25, 267,
  25, 269,
  25, 272,
  25, 273,
  25, 275,
  25, 276,
  25, 278,
  25, 280,
  25, 281,
  25, 282,
  25, 283,
  25, 286,
  25, 291,
  25, 294,
  25, 300,
  25, 301,
  25, 304,
  25, 305,
  25, 306,
  25, 309,
  25, 310,
  25, 311,
  25, 312,
  25, 313,
  25, 315,
  25, 322,
  25, 324,
  25, 325,
  25, 330,
  25, 331,
  25, 334,
  25, 335,
  25, 336,
  25, 338,
  25, 340,
  25, 342,
  25, 343,
  25, 345,
  25, 346,
  25, 347,
  25, 348,
  25, 351,
  25, 354,
  25, 355,
  25, 358,
  25, 360,
  25, 363,
  25, 364,
  25, 365,
  25, 367,
  25, 369,
  25, 373,
  25, 375,
  25, 379,
  25, 383,
  25, 386,
  25, 387,
  25, 389,
  25, 392,
  25, 395,
  25, 397,
  25, 398,
  25, 399,
  25, 400,
  25, 404,
  25, 407,
  25, 408,
  25, 410,
  25, 411,
  25, 413,
  25, 415,
  25, 416,
  25, 418,
  25, 420,
  25, 422,
  25, 424,
  25, 425,
  25, 426,
  25, 427,
  25, 430,
  25, 431,
  25, 433,
  25, 434,
  25, 435,
  25, 437,
  25, 438,
  25, 441,
  25, 442,
  25, 443,
  25, 444,
  25, 445,
  25, 447,
  25, 448,
  25, 450,
  25, 451,
  25, 452,
  25, 454,
  25, 455,
  25, 457,
  25, 459,
  25, 460,
  25, 466,
  25, 471,
  25, 472,
  25, 474,
  25, 475,
  25, 476,
  25, 479,
  25, 480,
  25, 488,
  25, 489,
  25, 490,
  25, 491,
  25, 495,
  25, 497,
  25, 500,
  26, 28,
  26, 30,
  26, 31,
  26, 34,
  26, 35,
  26, 38,
  26, 39,
  26, 42,
  26, 43,
  26, 44,
  26, 45,
  26, 48,
  26, 53,
  26, 54,
  26, 55,
  26, 58,
  26, 59,
  26, 60,
  26, 61,
  26, 62,
  26, 66,
  26, 67,
  26, 68,
  26, 69,
  26, 72,
  26, 73,
  26, 74,
  26, 75,
  26, 76,
  26, 79,
  26, 80,
  26, 81,
  26, 83,
  26, 84,
  26, 85,
  26, 86,
  26, 87,
  26, 88,
  26, 90,
  26, 91,
  26, 92,
  26, 93,
  26, 96,
  26, 97,
  26, 99,
  26, 103,
  26, 104,
  26, 105,
  26, 108,
  26, 109,
  26, 110,
  26, 111,
  26, 113,
  26, 115,
  26, 116,
  26, 117,
  26, 119,
  26, 120,
  26, 122,
  26, 123,
  26, 129,
  26, 130,
  26, 132,
  26, 136,
  26, 141,
  26, 142,
  26, 144,
  26, 146,
  26, 147,
  26, 150,
  26, 153,
  26, 156,
  26, 159,
  26, 161,
  26, 163,
  26, 164,
  26, 165,
  26, 167,
  26, 170,
  26, 172,
  26, 173,
  26, 174,
  26, 177,
  26, 178,
  26, 180,
  26, 182,
  26, 186,
  26, 191,
  26, 193,
  26, 194,
  26, 195,
  26, 196,
  26, 198,
  26, 199,
  26, 200,
  26, 201,
  26, 205,
  26, 208,
  26, 209,
  26, 210,
  26, 211,
  26, 212,
  26, 213,
  26, 214,
  26, 215,
  26, 217,
  26, 219,
  26, 220,
  26, 221,
  26, 224,
  26, 226,
  26, 227,
  26, 228,
  26, 230,
  26, 231,
  26, 233,
  26, 237,
  26, 240,
  26, 244,
  26, 245,
  26, 246,
  26, 247,
  26, 253,
  26, 254,
  26, 259,
  26, 261,
  26, 262,
  26, 263,
  26, 264,
  26, 266,
  26, 268,
  26, 271,
  26, 275,
  26, 278,
  26, 279,
  26, 282,
  26, 283,
  26, 284,
  26, 285,
  26, 287,
  26, 288,
  26, 289,
  26, 290,
  26, 292,
  26, 294,
  26, 297,
  26, 298,
  26, 299,
  26, 300,
  26, 303,
  26, 306,
  26, 307,
  26, 309,
  26, 310,
  26, 311,
  26, 312,
  26, 315,
  26, 317,
  26, 318,
  26, 319,
  26, 321,
  26, 323,
  26, 325,
  26, 326,
  26, 328,
  26, 331,
  26, 332,
  26, 333,
  26, 335,
  26, 336,
  26, 337,
  26, 340,
  26, 343,
  26, 344,
  26, 346,
  26, 349,
  26, 350,
  26, 351,
  26, 352,
  26, 353,
  26, 355,
  26, 359,
  26, 360,
  26, 361,
  26, 367,
  26, 368,
  26, 370,
  26, 371,
  26, 376,
  26, 379,
  26, 382,
  26, 384,
  26, 385,
  26, 386,
  26, 387,
  26, 388,
  26, 389,
  26, 395,
  26, 399,
  26, 402,
  26, 403,
  26, 404,
  26, 406,
  26, 407,
  26, 412,
  26, 413,
  26, 417,
  26, 418,
  26, 424,
  26, 425,
  26, 427,
  26, 428,
  26, 430,
  26, 434,
  26, 436,
  26, 439,
  26, 440,
  26, 444,
  26, 445,
  26, 447,
  26, 448,
  26, 451,
  26, 453,
  26, 455,
  26, 456,
  26, 458,
  26, 460,
  26, 462,
  26, 463,
  26, 465,
  26, 466,
  26, 467,
  26, 468,
  26, 470,
  26, 472,
  26, 475,
  26, 476,
  26, 477,
  26, 479,
  26, 481,
  26, 483,
  26, 489,
  26, 490,
  26, 491,
  26, 493,
  26, 498,
  27, 30,
  27, 32,
  27, 34,
  27, 35,
  27, 39,
  27, 40,
  27, 45,
  27, 46,
  27, 49,
  27, 51,
  27, 52,
  27, 56,
  27, 58,
  27, 59,
  27, 62,
  27, 63,
  27, 73,
  27, 77,
  27, 79,
  27, 81,
  27, 82,
  27, 83,
  27, 85,
  27, 90,
  27, 91,
  27, 92,
  27, 94,
  27, 95,
  27, 96,
  27, 98,
  27, 99,
  27, 102,
  27, 103,
  27, 108,
  27, 111,
  27, 113,
  27, 114,
  27, 115,
  27, 116,
  27, 118,
  27, 120,
  27, 122,
  27, 123,
  27, 130,
  27, 134,
  27, 140,
  27, 146,
  27, 147,
  27, 149,
  27, 150,
  27, 151,
  27, 153,
  27, 154,
  27, 156,
  27, 157,
  27, 158,
  27, 159,
  27, 160,
  27, 163,
  27, 166,
  27, 169,
  27, 170,
  27, 171,
  27, 172,
  27, 174,
  27, 179,
  27, 180,
  27, 183,
  27, 187,
  27, 188,
  27, 189,
  27, 190,
  27, 191,
  27, 192,
  27, 193,
  27, 198,
  27, 199,
  27, 202,
  27, 203,
  27, 207,
  27, 208,
  27, 209,
  27, 211,
  27, 212,
  27, 214,
  27, 218,
  27, 221,
  27, 224,
  27, 225,
  27, 226,
  27, 231,
  27, 232,
  27, 233,
  27, 234,
  27, 236,
  27, 241,
  27, 242,
  27, 245,
  27, 246,
  27, 249,
  27, 255,
  27, 257,
  27, 258,
  27, 261,
  27, 262,
  27, 263,
  27, 266,
  27, 267,
  27, 270,
  27, 273,
  27, 274,
  27, 276,
  27, 277,
  27, 281,
  27, 282,
  27, 283,
  27, 285,
  27, 286,
  27, 287,
  27, 291,
  27, 293,
  27, 294,
  27, 295,
  27, 296,
  27, 299,
  27, 300,
  27, 301,
  27, 303,
  27, 304,
  27, 308,
  27, 309,
  27, 310,
  27, 311,
  27, 314,
  27, 316,
  27, 317,
  27, 320,
  27, 326,
  27, 329,
  27, 330,
  27, 336,
  27, 337,
  27, 339,
  27, 341,
  27, 342,
  27, 344,
  27, 345,
  27, 350,
  27, 352,
  27, 353,
  27, 355,
  27, 363,
  27, 364,
  27, 367,
  27, 368,
  27, 370,
  27, 372,
  27, 373,
  27, 375,
  27, 382,
  27, 383,
  27, 384,
  27, 385,
  27, 388,
  27, 391,
  27, 395,
  27, 396,
  27, 398,
  27, 400,
  27, 404,
  27, 408,
  27, 409,
  27, 410,
  27, 411,
  27, 413,
  27, 417,
  27, 418,
  27, 419,
  27, 420,
  27, 421,
  27, 422,
  27, 423,
  27, 424,
  27, 427,
  27, 433,
  27, 436,
  27, 438,
  27, 439,
  27, 440,
  27, 441,
  27, 442,
  27, 444,
  27, 445,
  27, 446,
  27, 450,
  27, 452,
  27, 453,
  27, 455,
  27, 456,
  27, 457,
  27, 459,
  27, 463,
  27, 464,
  27, 465,
  27, 467,
  27, 468,
  27, 472,
  27, 473,
  27, 474,
  27, 476,
  27, 479,
  27, 481,
  27, 482,
  27, 486,
  27, 488,
  27, 491,
  27, 492,
  27, 493,
  27, 495,
  27, 496,
  27, 498,
  27, 499,
  28, 31,
  28, 32,
  28, 34,
  28, 35,
  28, 36,
  28, 37,
  28, 39,
  28, 40,
  28, 41,
  28, 45,
  28, 50,
  28, 51,
  28, 52,
  28, 55,
  28, 58,
  28, 59,
  28, 61,
  28, 63,
  28, 65,
  28, 66,
  28, 67,
  28, 73,
  28, 74,
  28, 78,
  28, 79,
  28, 81,
  28, 82,
  28, 83,
  28, 84,
  28, 86,
  28, 88,
  28, 89,
  28, 90,
  28, 91,
  28, 92,
  28, 94,
  28, 95,
  28, 97,
  28, 98,
  28, 99,
  28, 100,
  28, 102,
  28, 110,
  28, 111,
  28, 114,
  28, 115,
  28, 116,
  28, 119,
  28, 124,
  28, 125,
  28, 127,
  28, 128,
  28, 130,
  28, 131,
  28, 132,
  28, 135,
  28, 136,
  28, 139,
  28, 140,
  28, 142,
  28, 144,
  28, 145,
  28, 147,
  28, 150,
  28, 152,
  28, 156,
  28, 157,
  28, 159,
  28, 160,
  28, 162,
  28, 163,
  28, 164,
  28, 165,
  28, 167,
  28, 168,
  28, 169,
  28, 170,
  28, 171,
  28, 172,
  28, 173,
  28, 174,
  28, 176,
  28, 177,
  28, 178,
  28, 180,
  28, 181,
  28, 182,
  28, 183,
  28, 184,
  28, 186,
  28, 192,
  28, 193,
  28, 194,
  28, 195,
  28, 197,
  28, 198,
  28, 199,
  28, 200,
  28, 201,
  28, 202,
  28, 207,
  28, 209,
  28, 210,
  28, 215,
  28, 217,
  28, 218,
  28, 221,
  28, 223,
  28, 224,
  28, 226,
  28, 228,
  28, 231,
  28, 233,
  28, 237,
  28, 242,
  28, 243,
  28, 245,
  28, 248,
  28, 249,
  28, 251,
  28, 253,
  28, 255,
  28, 257,
  28, 259,
  28, 260,
  28, 263,
  28, 269,
  28, 270,
  28, 272,
  28, 273,
  28, 274,
  28, 276,
  28, 277,
  28, 279,
  28, 280,
  28, 283,
  28, 284,
  28, 285,
  28, 286,
  28, 287,
  28, 288,
  28, 290,
  28, 292,
  28, 294,
  28, 296,
  28, 299,
  28, 300,
  28, 301,
  28, 303,
  28, 307,
  28, 309,
  28, 311,
  28, 312,
  28, 313,
  28, 317,
  28, 320,
  28, 322,
  28, 323,
  28, 324,
  28, 327,
  28, 329,
  28, 331,
  28, 332,
  28, 334,
  28, 336,
  28, 341,
  28, 342,
  28, 343,
  28, 344,
  28, 346,
  28, 351,
  28, 352,
  28, 354,
  28, 355,
  28, 356,
  28, 357,
  28, 358,
  28, 360,
  28, 361,
  28, 362,
  28, 363,
  28, 366,
  28, 369,
  28, 373,
  28, 375,
  28, 376,
  28, 377,
  28, 380,
  28, 383,
  28, 384,
  28, 388,
  28, 392,
  28, 394,
  28, 396,
  28, 399,
  28, 400,
  28, 403,
  28, 405,
  28, 406,
  28, 407,
  28, 408,
  28, 410,
  28, 411,
  28, 412,
  28, 414,
  28, 416,
  28, 419,
  28, 422,
  28, 424,
  28, 425,
  28, 426,
  28, 432,
  28, 433,
  28, 434,
  28, 439,
  28, 440,
  28, 441,
  28, 442,
  28, 443,
  28, 444,
  28, 446,
  28, 447,
  28, 448,
  28, 450,
  28, 453,
  28, 457,
  28, 459,
  28, 461,
  28, 462,
  28, 463,
  28, 464,
  28, 465,
  28, 468,
  28, 476,
  28, 478,
  28, 479,
  28, 481,
  28, 485,
  28, 487,
  28, 490,
  28, 491,
  28, 493,
  28, 495,
  28, 498,
  28, 499,
  28, 500,
  29, 30,
  29, 31,
  29, 33,
  29, 34,
  29, 35,
  29, 38,
  29, 41,
  29, 43,
  29, 44,
  29, 48,
  29, 52,
  29, 54,
  29, 57,
  29, 62,
  29, 64,
  29, 65,
  29, 66,
  29, 68,
  29, 71,
  29, 75,
  29, 76,
  29, 77,
  29, 84,
  29, 85,
  29, 87,
  29, 88,
  29, 91,
  29, 94,
  29, 95,
  29, 102,
  29, 103,
  29, 104,
  29, 105,
  29, 106,
  29, 107,
  29, 112,
  29, 113,
  29, 114,
  29, 115,
  29, 116,
  29, 117,
  29, 118,
  29, 120,
  29, 122,
  29, 123,
  29, 125,
  29, 126,
  29, 127,
  29, 129,
  29, 131,
  29, 132,
  29, 133,
  29, 134,
  29, 135,
  29, 136,
  29, 137,
  29, 139,
  29, 142,
  29, 144,
  29, 145,
  29, 147,
  29, 150,
  29, 153,
  29, 155,
  29, 157,
  29, 158,
  29, 159,
  29, 160,
  29, 163,
  29, 165,
  29, 168,
  29, 169,
  29, 170,
  29, 171,
  29, 172,
  29, 174,
  29, 175,
  29, 181,
  29, 182,
  29, 183,
  29, 184,
  29, 186,
  29, 187,
  29, 189,
  29, 190,
  29, 191,
  29, 194,
  29, 195,
  29, 196,
  29, 198,
  29, 199,
  29, 200,
  29, 201,
  29, 203,
  29, 204,
  29, 205,
  29, 206,
  29, 207,
  29, 208,
  29, 212,
  29, 213,
  29, 217,
  29, 219,
  29, 222,
  29, 224,
  29, 229,
  29, 230,
  29, 232,
  29, 234,
  29, 241,
  29, 242,
  29, 244,
  29, 250,
  29, 253,
  29, 254,
  29, 256,
  29, 257,
  29, 258,
  29, 259,
  29, 260,
  29, 261,
  29, 265,
  29, 267,
  29, 269,
  29, 271,
  29, 273,
  29, 274,
  29, 279,
  29, 280,
  29, 283,
  29, 284,
  29, 286,
  29, 289,
  29, 292,
  29, 294,
  29, 295,
  29, 296,
  29, 297,
  29, 298,
  29, 299,
  29, 300,
  29, 301,
  29, 303,
  29, 306,
  29, 311,
  29, 313,
  29, 314,
  29, 315,
  29, 317,
  29, 319,
  29, 323,
  29, 327,
  29, 328,
  29, 331,
  29, 332,
  29, 334,
  29, 335,
  29, 339,
  29, 342,
  29, 345,
  29, 348,
  29, 353,
  29, 354,
  29, 355,
  29, 358,
  29, 360,
  29, 361,
  29, 362,
  29, 363,
  29, 365,
  29, 366,
  29, 368,
  29, 370,
  29, 373,
  29, 375,
  29, 380,
  29, 381,
  29, 382,
  29, 384,
  29, 390,
  29, 391,
  29, 395,
  29, 396,
  29, 398,
  29, 399,
  29, 400,
  29, 401,
  29, 403,
  29, 404,
  29, 405,
  29, 408,
  29, 412,
  29, 414,
  29, 418,
  29, 419,
  29, 420,
  29, 421,
  29, 425,
  29, 427,
  29, 428,
  29, 429,
  29, 431,
  29, 434,
  29, 435,
  29, 436,
  29, 437,
  29, 438,
  29, 443,
  29, 445,
  29, 446,
  29, 448,
  29, 449,
  29, 450,
  29, 454,
  29, 455,
  29, 456,
  29, 460,
  29, 461,
  29, 464,
  29, 465,
  29, 466,
  29, 467,
  29, 468,
  29, 471,
  29, 474,
  29, 476,
  29, 477,
  29, 478,
  29, 479,
  29, 481,
  29, 482,
  29, 483,
  29, 484,
  29, 485,
  29, 487,
  29, 488,
  29, 489,
  29, 490,
  29, 495,
  29, 499,
  29, 500,
  30, 31,
  30, 32,
  30, 34,
  30, 36,
  30, 37,
  30, 38,
  30, 41,
  30, 43,
  30, 44,
  30, 46,
  30, 49,
  30, 55,
  30, 58,
  30, 59,
  30, 60,
  30, 61,
  30, 62,
  30, 63,
  30, 66,
  30, 67,
  30, 68,
  30, 69,
  30, 71,
  30, 72,
  30, 75,
  30, 79,
  30, 82,
  30, 83,
  30, 84,
  30, 89,
  30, 90,
  30, 95,
  30, 98,
  30, 99,
  30, 104,
  30, 105,
  30, 109,
  30, 111,
  30, 113,
  30, 114,
  30, 115,
  30, 116,
  30, 118,
  30, 119,
  30, 120,
  30, 121,
  30, 122,
  30, 124,
  30, 127,
  30, 128,
  30, 130,
  30, 131,
  30, 132,
  30, 134,
  30, 135,
  30, 139,
  30, 142,
  30, 143,
  30, 145,
  30, 146,
  30, 148,
  30, 153,
  30, 154,
  30, 157,
  30, 161,
  30, 164,
  30, 165,
  30, 166,
  30, 167,
  30, 168,
  30, 170,
  30, 171,
  30, 172,
  30, 175,
  30, 176,
  30, 177,
  30, 180,
  30, 185,
  30, 186,
  30, 187,
  30, 188,
  30, 192,
  30, 195,
  30, 198,
  30, 199,
  30, 201,
  30, 202,
  30, 207,
  30, 208,
  30, 216,
  30, 217,
  30, 220,
  30, 222,
  30, 223,
  30, 230,
  30, 231,
  30, 235,
  30, 238,
  30, 242,
  30, 243,
  30, 246,
  30, 247,
  30, 248,
  30, 252,
  30, 253,
  30, 257,
  30, 258,
  30, 260,
  30, 263,
  30, 264,
  30, 265,
  30, 269,
  30, 273,
  30, 278,
  30, 280,
  30, 282,
  30, 284,
  30, 289,
  30, 296,
  30, 301,
  30, 305,
  30, 306,
  30, 309,
  30, 310,
  30, 315,
  30, 316,
  30, 317,
  30, 321,
  30, 323,
  30, 324,
  30, 326,
  30, 327,
  30, 331,
  30, 332,
  30, 334,
  30, 336,
  30, 337,
  30, 339,
  30, 341,
  30, 343,
  30, 344,
  30, 345,
  30, 347,
  30, 349,
  30, 352,
  30, 353,
  30, 355,
  30, 358,
  30, 360,
  30, 361,
  30, 362,
  30, 366,
  30, 367,
  30, 368,
  30, 369,
  30, 370,
  30, 374,
  30, 375,
  30, 378,
  30, 381,
  30, 382,
  30, 383,
  30, 389,
  30, 390,
  30, 393,
  30, 394,
  30, 396,
  30, 399,
  30, 400,
  30, 402,
  30, 404,
  30, 406,
  30, 407,
  30, 408,
  30, 409,
  30, 411,
  30, 412,
  30, 414,
  30, 419,
  30, 421,
  30, 424,
  30, 425,
  30, 428,
  30, 430,
  30, 432,
  30, 433,
  30, 435,
  30, 436,
  30, 437,
  30, 439,
  30, 444,
  30, 446,
  30, 449,
  30, 452,
  30, 456,
  30, 457,
  30, 458,
  30, 460,
  30, 462,
  30, 466,
  30, 468,
  30, 471,
  30, 472,
  30, 474,
  30, 476,
  30, 477,
  30, 478,
  30, 482,
  30, 485,
  30, 486,
  30, 488,
  30, 489,
  30, 491,
  30, 492,
  30, 493,
  30, 496,
  30, 499,
  31, 33,
  31, 35,
  31, 40,
  31, 41,
  31, 42,
  31, 43,
  31, 44,
  31, 50,
  31, 55,
  31, 56,
  31, 58,
  31, 61,
  31, 63,
  31, 64,
  31, 71,
  31, 72,
  31, 73,
  31, 74,
  31, 76,
  31, 77,
  31, 80,
  31, 85,
  31, 88,
  31, 92,
  31, 93,
  31, 97,
  31, 100,
  31, 101,
  31, 104,
  31, 105,
  31, 106,
  31, 108,
  31, 109,
  31, 110,
  31, 111,
  31, 112,
  31, 115,
  31, 117,
  31, 119,
  31, 120,
  31, 122,
  31, 123,
  31, 124,
  31, 128,
  31, 129,
  31, 131,
  31, 132,
  31, 133,
  31, 134,
  31, 136,
  31, 139,
  31, 140,
  31, 144,
  31, 145,
  31, 147,
  31, 148,
  31, 149,
  31, 150,
  31, 153,
  31, 154,
  31, 157,
  31, 160,
  31, 161,
  31, 163,
  31, 166,
  31, 168,
  31, 170,
  31, 172,
  31, 173,
  31, 174,
  31, 177,
  31, 178,
  31, 179,
  31, 180,
  31, 181,
  31, 184,
  31, 185,
  31, 192,
  31, 196,
  31, 198,
  31, 199,
  31, 201,
  31, 203,
  31, 204,
  31, 208,
  31, 209,
  31, 210,
  31, 212,
  31, 213,
  31, 214,
  31, 215,
  31, 217,
  31, 218,
  31, 219,
  31, 221,
  31, 223,
  31, 224,
  31, 226,
  31, 227,
  31, 229,
  31, 230,
  31, 232,
  31, 236,
  31, 237,
  31, 240,
  31, 241,
  31, 248,
  31, 254,
  31, 260,
  31, 262,
  31, 263,
  31, 265,
  31, 266,
  31, 267,
  31, 268,
  31, 270,
  31, 273,
  31, 274,
  31, 276,
  31, 277,
  31, 281,
  31, 283,
  31, 284,
  31, 287,
  31, 291,
  31, 292,
  31, 294,
  31, 296,
  31, 297,
  31, 298,
  31, 299,
  31, 300,
  31, 301,
  31, 303,
  31, 305,
  31, 306,
  31, 307,
  31, 309,
  31, 310,
  31, 314,
  31, 317,
  31, 318,
  31, 319,
  31, 320,
  31, 323,
  31, 324,
  31, 325,
  31, 330,
  31, 331,
  31, 332,
  31, 333,
  31, 334,
  31, 336,
  31, 340,
  31, 342,
  31, 345,
  31, 346,
  31, 347,
  31, 348,
  31, 349,
  31, 350,
  31, 352,
  31, 354,
  31, 356,
  31, 358,
  31, 360,
  31, 361,
  31, 362,
  31, 363,
  31, 370,
  31, 371,
  31, 372,
  31, 373,
  31, 374,
  31, 375,
  31, 376,
  31, 377,
  31, 378,
  31, 384,
  31, 385,
  31, 386,
  31, 387,
  31, 390,
  31, 392,
  31, 394,
  31, 396,
  31, 398,
  31, 400,
  31, 403,
  31, 405,
  31, 406,
  31, 408,
  31, 410,
  31, 412,
  31, 413,
  31, 414,
  31, 415,
  31, 416,
  31, 417,
  31, 419,
  31, 420,
  31, 421,
  31, 422,
  31, 425,
  31, 426,
  31, 427,
  31, 429,
  31, 430,
  31, 431,
  31, 433,
  31, 441,
  31, 442,
  31, 443,
  31, 444,
  31, 446,
  31, 448,
  31, 453,
  31, 455,
  31, 461,
  31, 462,
  31, 463,
  31, 464,
  31, 465,
  31, 466,
  31, 467,
  31, 469,
  31, 470,
  31, 471,
  31, 472,
  31, 473,
  31, 476,
  31, 479,
  31, 483,
  31, 484,
  31, 486,
  31, 491,
  31, 492,
  31, 493,
  31, 494,
  31, 498,
  31, 499,
  32, 34,
  32, 37,
  32, 38,
  32, 42,
  32, 43,
  32, 44,
  32, 45,
  32, 46,
  32, 48,
  32, 49,
  32, 50,
  32, 51,
  32, 54,
  32, 56,
  32, 57,
  32, 58,
  32, 59,
  32, 60,
  32, 61,
  32, 63,
  32, 65,
  32, 66,
  32, 69,
  32, 72,
  32, 73,
  32, 74,
  32, 80,
  32, 83,
  32, 87,
  32, 91,
  32, 92,
  32, 93,
  32, 94,
  32, 95,
  32, 98,
  32, 99,
  32, 100,
  32, 101,
  32, 104,
  32, 105,
  32, 109,
  32, 112,
  32, 115,
  32, 119,
  32, 125,
  32, 126,
  32, 131,
  32, 133,
  32, 140,
  32, 144,
  32, 145,
  32, 146,
  32, 153,
  32, 155,
  32, 164,
  32, 165,
  32, 166,
  32, 169,
  32, 170,
  32, 171,
  32, 174,
  32, 176,
  32, 177,
  32, 178,
  32, 180,
  32, 186,
  32, 187,
  32, 188,
  32, 189,
  32, 191,
  32, 192,
  32, 193,
  32, 196,
  32, 199,
  32, 202,
  32, 206,
  32, 207,
  32, 210,
  32, 211,
  32, 212,
  32, 214,
  32, 215,
  32, 217,
  32, 219,
  32, 221,
  32, 222,
  32, 223,
  32, 224,
  32, 226,
  32, 227,
  32, 228,
  32, 230,
  32, 232,
  32, 234,
  32, 237,
  32, 238,
  32, 239,
  32, 252,
  32, 253,
  32, 255,
  32, 256,
  32, 261,
  32, 264,
  32, 269,
  32, 271,
  32, 274,
  32, 277,
  32, 278,
  32, 279,
  32, 281,
  32, 283,
  32, 285,
  32, 286,
  32, 290,
  32, 291,
  32, 292,
  32, 293,
  32, 296,
  32, 297,
  32, 298,
  32, 299,
  32, 300,
  32, 301,
  32, 303,
  32, 304,
  32, 305,
  32, 306,
  32, 310,
  32, 311,
  32, 313,
  32, 314,
  32, 315,
  32, 319,
  32, 320,
  32, 321,
  32, 325,
  32, 328,
  32, 329,
  32, 333,
  32, 334,
  32, 335,
  32, 336,
  32, 337,
  32, 340,
  32, 341,
  32, 342,
  32, 344,
  32, 346,
  32, 348,
  32, 350,
  32, 352,
  32, 354,
  32, 357,
  32, 358,
  32, 361,
  32, 362,
  32, 364,
  32, 365,
  32, 368,
  32, 369,
  32, 370,
  32, 371,
  32, 374,
  32, 376,
  32, 384,
  32, 388,
  32, 389,
  32, 391,
  32, 392,
  32, 393,
  32, 396,
  32, 398,
  32, 399,
  32, 402,
  32, 403,
  32, 404,
  32, 405,
  32, 406,
  32, 407,
  32, 409,
  32, 410,
  32, 411,
  32, 412,
  32, 413,
  32, 415,
  32, 416,
  32, 417,
  32, 419,
  32, 420,
  32, 423,
  32, 425,
  32, 426,
  32, 427,
  32, 428,
  32, 432,
  32, 433,
  32, 434,
  32, 435,
  32, 436,
  32, 437,
  32, 439,
  32, 441,
  32, 443,
  32, 444,
  32, 446,
  32, 448,
  32, 449,
  32, 451,
  32, 452,
  32, 453,
  32, 455,
  32, 457,
  32, 458,
  32, 459,
  32, 460,
  32, 461,
  32, 465,
  32, 466,
  32, 467,
  32, 469,
  32, 470,
  32, 474,
  32, 478,
  32, 479,
  32, 485,
  32, 486,
  32, 487,
  32, 488,
  32, 490,
  32, 491,
  32, 495,
  32, 496,
  32, 497,
  32, 498,
  32, 500,
  33, 34,
  33, 36,
  33, 38,
  33, 39,
  33, 40,
  33, 41,
  33, 43,
  33, 44,
  33, 49,
  33, 50,
  33, 51,
  33, 52,
  33, 55,
  33, 56,
  33, 57,
  33, 59,
  33, 60,
  33, 61,
  33, 63,
  33, 64,
  33, 66,
  33, 68,
  33, 69,
  33, 71,
  33, 72,
  33, 74,
  33, 75,
  33, 76,
  33, 77,
  33, 78,
  33, 79,
  33, 80,
  33, 82,
  33, 83,
  33, 85,
  33, 87,
  33, 89,
  33, 96,
  33, 97,
  33, 98,
  33, 99,
  33, 101,
  33, 102,
  33, 103,
  33, 104,
  33, 108,
  33, 110,
  33, 111,
  33, 112,
  33, 113,
  33, 114,
  33, 116,
  33, 117,
  33, 122,
  33, 127,
  33, 128,
  33, 129,
  33, 130,
  33, 133,
  33, 134,
  33, 143,
  33, 144,
  33, 149,
  33, 151,
  33, 152,
  33, 154,
  33, 159,
  33, 160,
  33, 161,
  33, 164,
  33, 165,
  33, 166,
  33, 168,
  33, 169,
  33, 171,
  33, 172,
  33, 174,
  33, 175,
  33, 179,
  33, 180,
  33, 184,
  33, 185,
  33, 186,
  33, 188,
  33, 189,
  33, 190,
  33, 191,
  33, 193,
  33, 195,
  33, 197,
  33, 199,
  33, 200,
  33, 201,
  33, 202,
  33, 203,
  33, 204,
  33, 205,
  33, 208,
  33, 210,
  33, 211,
  33, 213,
  33, 215,
  33, 217,
  33, 221,
  33, 227,
  33, 229,
  33, 230,
  33, 234,
  33, 235,
  33, 236,
  33, 237,
  33, 238,
  33, 239,
  33, 240,
  33, 245,
  33, 250,
  33, 253,
  33, 255,
  33, 256,
  33, 258,
  33, 260,
  33, 261,
  33, 264,
  33, 265,
  33, 268,
  33, 272,
  33, 275,
  33, 278,
  33, 280,
  33, 281,
  33, 282,
  33, 284,
  33, 285,
  33, 288,
  33, 290,
  33, 291,
  33, 293,
  33, 294,
  33, 295,
  33, 296,
  33, 297,
  33, 301,
  33, 302,
  33, 304,
  33, 306,
  33, 309,
  33, 310,
  33, 311,
  33, 313,
  33, 314,
  33, 319,
  33, 320,
  33, 321,
  33, 324,
  33, 327,
  33, 332,
  33, 334,
  33, 335,
  33, 336,
  33, 338,
  33, 340,
  33, 342,
  33, 343,
  33, 351,
  33, 352,
  33, 353,
  33, 357,
  33, 359,
  33, 364,
  33, 365,
  33, 368,
  33, 370,
  33, 371,
  33, 374,
  33, 377,
  33, 380,
  33, 382,
  33, 390,
  33, 393,
  33, 396,
  33, 397,
  33, 401,
  33, 403,
  33, 404,
  33, 406,
  33, 411,
  33, 412,
  33, 413,
  33, 416,
  33, 417,
  33, 420,
  33, 421,
  33, 422,
  33, 423,
  33, 424,
  33, 427,
  33, 430,
  33, 434,
  33, 435,
  33, 438,
  33, 439,
  33, 440,
  33, 442,
  33, 443,
  33, 445,
  33, 447,
  33, 448,
  33, 451,
  33, 453,
  33, 458,
  33, 459,
  33, 462,
  33, 463,
  33, 466,
  33, 471,
  33, 472,
  33, 473,
  33, 480,
  33, 481,
  33, 482,
  33, 485,
  33, 486,
  33, 487,
  33, 488,
  33, 491,
  33, 492,
  33, 493,
  33, 494,
  33, 496,
  33, 498,
  33, 499,
  33, 500,
  34, 36,
  34, 37,
  34, 44,
  34, 45,
  34, 47,
  34, 48,
  34, 51,
  34, 52,
  34, 53,
  34, 55,
  34, 57,
  34, 58,
  34, 59,
  34, 60,
  34, 62,
  34, 64,
  34, 65,
  34, 66,
  34, 69,
  34, 71,
  34, 72,
  34, 73,
  34, 74,
  34, 76,
  34, 79,
  34, 80,
  34, 81,
  34, 83,
  34, 85,
  34, 86,
  34, 88,
  34, 90,
  34, 92,
  34, 97,
  34, 98,
  34, 100,
  34, 101,
  34, 102,
  34, 107,
  34, 110,
  34, 111,
  34, 113,
  34, 114,
  34, 117,
  34, 118,
  34, 121,
  34, 123,
  34, 124,
  34, 125,
  34, 126,
  34, 127,
  34, 128,
  34, 135,
  34, 136,
  34, 138,
  34, 139,
  34, 140,
  34, 141,
  34, 142,
  34, 143,
  34, 145,
  34, 146,
  34, 147,
  34, 151,
  34, 153,
  34, 154,
  34, 156,
  34, 158,
  34, 159,
  34, 160,
  34, 162,
  34, 163,
  34, 165,
  34, 166,
  34, 167,
  34, 168,
  34, 169,
  34, 170,
  34, 172,
  34, 173,
  34, 175,
  34, 176,
  34, 177,
  34, 178,
  34, 180,
  34, 181,
  34, 182,
  34, 187,
  34, 189,
  34, 191,
  34, 192,
  34, 193,
  34, 195,
  34, 196,
  34, 197,
  34, 201,
  34, 202,
  34, 204,
  34, 207,
  34, 210,
  34, 212,
  34, 213,
  34, 217,
  34, 219,
  34, 220,
  34, 224,
  34, 226,
  34, 227,
  34, 235,
  34, 239,
  34, 241,
  34, 242,
  34, 243,
  34, 248,
  34, 249,
  34, 250,
  34, 255,
  34, 256,
  34, 257,
  34, 260,
  34, 261,
  34, 263,
  34, 264,
  34, 269,
  34, 270,
  34, 271,
  34, 272,
  34, 273,
  34, 274,
  34, 275,
  34, 277,
  34, 279,
  34, 280,
  34, 282,
  34, 283,
  34, 285,
  34, 287,
  34, 288,
  34, 289,
  34, 290,
  34, 293,
  34, 294,
  34, 297,
  34, 298,
  34, 299,
  34, 301,
  34, 304,
  34, 309,
  34, 310,
  34, 311,
  34, 312,
  34, 318,
  34, 319,
  34, 320,
  34, 321,
  34, 322,
  34, 323,
  34, 324,
  34, 328,
  34, 330,
  34, 332,
  34, 333,
  34, 334,
  34, 338,
  34, 339,
  34, 341,
  34, 342,
  34, 343,
  34, 344,
  34, 346,
  34, 347,
  34, 350,
  34, 352,
  34, 354,
  34, 356,
  34, 360,
  34, 362,
  34, 366,
  34, 367,
  34, 368,
  34, 369,
  34, 371,
  34, 373,
  34, 374,
  34, 377,
  34, 380,
  34, 381,
  34, 382,
  34, 383,
  34, 386,
  34, 387,
  34, 390,
  34, 394,
  34, 397,
  34, 399,
  34, 401,
  34, 403,
  34, 404,
  34, 406,
  34, 410,
  34, 412,
  34, 414,
  34, 415,
  34, 416,
  34, 418,
  34, 419,
  34, 420,
  34, 422,
  34, 424,
  34, 428,
  34, 430,
  34, 432,
  34, 436,
  34, 438,
  34, 443,
  34, 446,
  34, 448,
  34, 450,
  34, 452,
  34, 454,
  34, 455,
  34, 456,
  34, 459,
  34, 464,
  34, 466,
  34, 470,
  34, 471,
  34, 474,
  34, 476,
  34, 479,
  34, 484,
  34, 485,
  34, 486,
  34, 490,
  34, 492,
  34, 495,
  34, 497,
  34, 499,
  35, 36,
  35, 39,
  35, 46,
  35, 49,
  35, 50,
  35, 56,
  35, 57,
  35, 60,
  35, 63,
  35, 64,
  35, 65,
  35, 66,
  35, 69,
  35, 70,
  35, 71,
  35, 72,
  35, 74,
  35, 76,
  35, 77,
  35, 79,
  35, 80,
  35, 82,
  35, 83,
  35, 84,
  35, 85,
  35, 87,
  35, 88,
  35, 92,
  35, 94,
  35, 95,
  35, 97,
  35, 100,
  35, 101,
  35, 105,
  35, 108,
  35, 109,
  35, 110,
  35, 111,
  35, 112,
  35, 114,
  35, 119,
  35, 120,
  35, 121,
  35, 122,
  35, 125,
  35, 126,
  35, 129,
  35, 130,
  35, 132,
  35, 136,
  35, 139,
  35, 141,
  35, 142,
  35, 143,
  35, 144,
  35, 145,
  35, 148,
  35, 150,
  35, 152,
  35, 154,
  35, 155,
  35, 161,
  35, 163,
  35, 164,
  35, 166,
  35, 167,
  35, 169,
  35, 171,
  35, 172,
  35, 173,
  35, 174,
  35, 176,
  35, 177,
  35, 180,
  35, 181,
  35, 183,
  35, 185,
  35, 186,
  35, 189,
  35, 190,
  35, 191,
  35, 193,
  35, 194,
  35, 195,
  35, 196,
  35, 197,
  35, 201,
  35, 202,
  35, 203,
  35, 205,
  35, 206,
  35, 210,
  35, 214,
  35, 215,
  35, 216,
  35, 219,
  35, 220,
  35, 223,
  35, 225,
  35, 226,
  35, 230,
  35, 233,
  35, 234,
  35, 237,
  35, 241,
  35, 243,
  35, 244,
  35, 245,
  35, 249,
  35, 250,
  35, 252,
  35, 255,
  35, 258,
  35, 262,
  35, 263,
  35, 264,
  35, 266,
  35, 268,
  35, 270,
  35, 272,
  35, 274,
  35, 280,
  35, 281,
  35, 285,
  35, 286,
  35, 288,
  35, 289,
  35, 292,
  35, 295,
  35, 296,
  35, 298,
  35, 299,
  35, 306,
  35, 308,
  35, 311,
  35, 315,
  35, 316,
  35, 317,
  35, 319,
  35, 320,
  35, 321,
  35, 322,
  35, 323,
  35, 324,
  35, 325,
  35, 327,
  35, 334,
  35, 335,
  35, 336,
  35, 341,
  35, 342,
  35, 344,
  35, 347,
  35, 352,
  35, 353,
  35, 356,
  35, 357,
  35, 358,
  35, 360,
  35, 366,
  35, 367,
  35, 368,
  35, 370,
  35, 371,
  35, 372,
  35, 378,
  35, 379,
  35, 380,
  35, 383,
  35, 384,
  35, 385,
  35, 388,
  35, 391,
  35, 392,
  35, 397,
  35, 398,
  35, 400,
  35, 401,
  35, 402,
  35, 404,
  35, 405,
  35, 409,
  35, 411,
  35, 413,
  35, 415,
  35, 416,
  35, 418,
  35, 420,
  35, 422,
  35, 427,
  35, 431,
  35, 432,
  35, 433,
  35, 438,
  35, 439,
  35, 440,
  35, 443,
  35, 448,
  35, 449,
  35, 452,
  35, 453,
  35, 457,
  35, 460,
  35, 462,
  35, 466,
  35, 467,
  35, 468,
  35, 470,
  35, 472,
  35, 473,
  35, 474,
  35, 475,
  35, 478,
  35, 480,
  35, 483,
  35, 486,
  35, 487,
  35, 489,
  35, 493,
  35, 495,
  35, 497,
  35, 498,
  35, 499,
  35, 500,
  36, 37,
  36, 38,
  36, 39,
  36, 40,
  36, 43,
  36, 45,
  36, 47,
  36, 48,
  36, 49,
  36, 50,
  36, 52,
  36, 55,
  36, 58,
  36, 59,
  36, 60,
  36, 62,
  36, 65,
  36, 66,
  36, 67,
  36, 68,
  36, 70,
  36, 71,
  36, 83,
  36, 84,
  36, 86,
  36, 87,
  36, 89,
  36, 91,
  36, 92,
  36, 93,
  36, 94,
  36, 95,
  36, 96,
  36, 98,
  36, 102,
  36, 103,
  36, 104,
  36, 105,
  36, 106,
  36, 109,
  36, 111,
  36, 112,
  36, 113,
  36, 114,
  36, 115,
  36, 116,
  36, 117,
  36, 119,
  36, 120,
  36, 121,
  36, 127,
  36, 136,
  36, 140,
  36, 143,
  36, 149,
  36, 150,
  36, 152,
  36, 153,
  36, 155,
  36, 156,
  36, 160,
  36, 161,
  36, 162,
  36, 166,
  36, 170,
  36, 171,
  36, 173,
  36, 175,
  36, 177,
  36, 180,
  36, 182,
  36, 183,
  36, 184,
  36, 186,
  36, 190,
  36, 191,
  36, 194,
  36, 199,
  36, 200,
  36, 201,
  36, 204,
  36, 205,
  36, 206,
  36, 208,
  36, 210,
  36, 212,
  36, 213,
  36, 214,
  36, 216,
  36, 217,
  36, 219,
  36, 223,
  36, 224,
  36, 225,
  36, 226,
  36, 228,
  36, 233,
  36, 235,
  36, 238,
  36, 239,
  36, 242,
  36, 243,
  36, 244,
  36, 246,
  36, 247,
  36, 251,
  36, 252,
  36, 255,
  36, 256,
  36, 258,
  36, 263,
  36, 265,
  36, 266,
  36, 268,
  36, 269,
  36, 273,
  36, 275,
  36, 276,
  36, 277,
  36, 281,
  36, 283,
  36, 285,
  36, 288,
  36, 292,
  36, 297,
  36, 298,
  36, 300,
  36, 301,
  36, 304,
  36, 305,
  36, 306,
  36, 310,
  36, 315,
  36, 317,
  36, 318,
  36, 320,
  36, 323,
  36, 324,
  36, 328,
  36, 331,
  36, 332,
  36, 335,
  36, 337,
  36, 338,
  36, 339,
  36, 345,
  36, 346,
  36, 348,
  36, 349,
  36, 351,
  36, 352,
  36, 353,
  36, 354,
  36, 355,
  36, 356,
  36, 358,
  36, 359,
  36, 366,
  36, 368,
  36, 374,
  36, 375,
  36, 378,
  36, 379,
  36, 383,
  36, 385,
  36, 389,
  36, 390,
  36, 393,
  36, 397,
  36, 398,
  36, 402,
  36, 403,
  36, 409,
  36, 412,
  36, 417,
  36, 422,
  36, 423,
  36, 425,
  36, 426,
  36, 427,
  36, 428,
  36, 429,
  36, 432,
  36, 433,
  36, 434,
  36, 435,
  36, 437,
  36, 438,
  36, 442,
  36, 444,
  36, 447,
  36, 448,
  36, 451,
  36, 455,
  36, 456,
  36, 459,
  36, 462,
  36, 464,
  36, 467,
  36, 469,
  36, 472,
  36, 473,
  36, 474,
  36, 477,
  36, 478,
  36, 482,
  36, 485,
  36, 488,
  36, 490,
  36, 491,
  36, 493,
  36, 494,
  36, 495,
  36, 496,
  36, 498,
  36, 500,
  37, 39,
  37, 41,
  37, 42,
  37, 44,
  37, 45,
  37, 47,
  37, 48,
  37, 50,
  37, 52,
  37, 56,
  37, 60,
  37, 62,
  37, 63,
  37, 64,
  37, 66,
  37, 67,
  37, 70,
  37, 71,
  37, 72,
  37, 74,
  37, 76,
  37, 79,
  37, 80,
  37, 81,
  37, 82,
  37, 86,
  37, 88,
  37, 89,
  37, 90,
  37, 92,
  37, 93,
  37, 95,
  37, 96,
  37, 97,
  37, 98,
  37, 99,
  37, 105,
  37, 110,
  37, 112,
  37, 115,
  37, 116,
  37, 121,
  37, 123,
  37, 124,
  37, 125,
  37, 126,
  37, 130,
  37, 131,
  37, 132,
  37, 135,
  37, 136,
  37, 140,
  37, 141,
  37, 142,
  37, 146,
  37, 154,
  37, 157,
  37, 158,
  37, 160,
  37, 161,
  37, 162,
  37, 163,
  37, 164,
  37, 170,
  37, 171,
  37, 172,
  37, 174,
  37, 175,
  37, 176,
  37, 177,
  37, 178,
  37, 179,
  37, 180,
  37, 181,
  37, 183,
  37, 184,
  37, 185,
  37, 188,
  37, 191,
  37, 193,
  37, 194,
  37, 195,
  37, 198,
  37, 199,
  37, 200,
  37, 201,
  37, 202,
  37, 203,
  37, 206,
  37, 208,
  37, 209,
  37, 214,
  37, 215,
  37, 216,
  37, 217,
  37, 218,
  37, 219,
  37, 221,
  37, 222,
  37, 223,
  37, 225,
  37, 226,
  37, 227,
  37, 228,
  37, 229,
  37, 232,
  37, 233,
  37, 236,
  37, 237,
  37, 238,
  37, 240,
  37, 241,
  37, 242,
  37, 243,
  37, 244,
  37, 245,
  37, 250,
  37, 251,
  37, 252,
  37, 254,
  37, 255,
  37, 256,
  37, 259,
  37, 264,
  37, 266,
  37, 269,
  37, 271,
  37, 272,
  37, 273,
  37, 274,
  37, 276,
  37, 277,
  37, 281,
  37, 282,
  37, 283,
  37, 285,
  37, 286,
  37, 287,
  37, 288,
  37, 291,
  37, 292,
  37, 294,
  37, 302,
  37, 303,
  37, 305,
  37, 306,
  37, 307,
  37, 310,
  37, 314,
  37, 317,
  37, 318,
  37, 321,
  37, 322,
  37, 324,
  37, 325,
  37, 326,
  37, 327,
  37, 328,
  37, 331,
  37, 332,
  37, 335,
  37, 337,
  37, 341,
  37, 342,
  37, 344,
  37, 345,
  37, 347,
  37, 349,
  37, 350,
  37, 351,
  37, 352,
  37, 353,
  37, 355,
  37, 356,
  37, 357,
  37, 360,
  37, 361,
  37, 362,
  37, 363,
  37, 366,
  37, 367,
  37, 368,
  37, 369,
  37, 371,
  37, 372,
  37, 374,
  37, 375,
  37, 376,
  37, 379,
  37, 380,
  37, 381,
  37, 383,
  37, 385,
  37, 388,
  37, 390,
  37, 392,
  37, 394,
  37, 398,
  37, 399,
  37, 400,
  37, 401,
  37, 403,
  37, 405,
  37, 406,
  37, 407,
  37, 408,
  37, 410,
  37, 411,
  37, 413,
  37, 416,
  37, 418,
  37, 420,
  37, 422,
  37, 423,
  37, 424,
  37, 425,
  37, 426,
  37, 427,
  37, 428,
  37, 431,
  37, 434,
  37, 435,
  37, 436,
  37, 439,
  37, 441,
  37, 442,
  37, 444,
  37, 446,
  37, 449,
  37, 451,
  37, 455,
  37, 457,
  37, 458,
  37, 459,
  37, 461,
  37, 463,
  37, 464,
  37, 466,
  37, 468,
  37, 470,
  37, 471,
  37, 472,
  37, 473,
  37, 475,
  37, 480,
  37, 482,
  37, 485,
  37, 489,
  37, 494,
  37, 495,
  37, 496,
  37, 497,
  37, 498,
  37, 499,
  37, 500,
  38, 43,
  38, 44,
  38, 45,
  38, 47,
  38, 51,
  38, 53,
  38, 54,
  38, 55,
  38, 56,
  38, 57,
  38, 61,
  38, 63,
  38, 64,
  38, 66,
  38, 67,
  38, 68,
  38, 69,
  38, 70,
  38, 73,
  38, 74,
  38, 75,
  38, 79,
  38, 80,
  38, 82,
  38, 86,
  38, 92,
  38, 94,
  38, 96,
  38, 102,
  38, 104,
  38, 105,
  38, 106,
  38, 109,
  38, 111,
  38, 113,
  38, 114,
  38, 115,
  38, 116,
  38, 117,
  38, 118,
  38, 120,
  38, 121,
  38, 124,
  38, 125,
  38, 126,
  38, 130,
  38, 134,
  38, 136,
  38, 143,
  38, 144,
  38, 145,
  38, 147,
  38, 148,
  38, 151,
  38, 152,
  38, 153,
  38, 159,
  38, 160,
  38, 161,
  38, 168,
  38, 171,
  38, 172,
  38, 174,
  38, 181,
  38, 182,
  38, 184,
  38, 185,
  38, 186,
  38, 187,
  38, 192,
  38, 195,
  38, 198,
  38, 200,
  38, 201,
  38, 203,
  38, 204,
  38, 205,
  38, 207,
  38, 208,
  38, 213,
  38, 214,
  38, 217,
  38, 219,
  38, 223,
  38, 225,
  38, 230,
  38, 232,
  38, 233,
  38, 236,
  38, 237,
  38, 238,
  38, 239,
  38, 244,
  38, 246,
  38, 247,
  38, 248,
  38, 250,
  38, 252,
  38, 255,
  38, 256,
  38, 259,
  38, 261,
  38, 262,
  38, 264,
  38, 265,
  38, 266,
  38, 267,
  38, 268,
  38, 271,
  38, 273,
  38, 274,
  38, 275,
  38, 276,
  38, 279,
  38, 280,
  38, 281,
  38, 283,
  38, 284,
  38, 288,
  38, 289,
  38, 290,
  38, 291,
  38, 292,
  38, 298,
  38, 300,
  38, 304,
  38, 305,
  38, 306,
  38, 309,
  38, 310,
  38, 311,
  38, 313,
  38, 314,
  38, 316,
  38, 317,
  38, 319,
  38, 320,
  38, 321,
  38, 325,
  38, 327,
  38, 328,
  38, 329,
  38, 331,
  38, 333,
  38, 334,
  38, 335,
  38, 337,
  38, 340,
  38, 341,
  38, 342,
  38, 343,
  38, 349,
  38, 350,
  38, 351,
  38, 352,
  38, 355,
  38, 356,
  38, 357,
  38, 358,
  38, 359,
  38, 360,
  38, 361,
  38, 362,
  38, 363,
  38, 365,
  38, 367,
  38, 368,
  38, 369,
  38, 370,
  38, 371,
  38, 377,
  38, 378,
  38, 382,
  38, 384,
  38, 385,
  38, 387,
  38, 390,
  38, 391,
  38, 394,
  38, 396,
  38, 397,
  38, 403,
  38, 404,
  38, 406,
  38, 409,
  38, 410,
  38, 411,
  38, 412,
  38, 413,
  38, 414,
  38, 415,
  38, 417,
  38, 418,
  38, 420,
  38, 422,
  38, 423,
  38, 425,
  38, 426,
  38, 427,
  38, 428,
  38, 431,
  38, 432,
  38, 433,
  38, 434,
  38, 435,
  38, 436,
  38, 439,
  38, 441,
  38, 442,
  38, 446,
  38, 447,
  38, 451,
  38, 453,
  38, 454,
  38, 455,
  38, 457,
  38, 458,
  38, 460,
  38, 464,
  38, 469,
  38, 471,
  38, 474,
  38, 479,
  38, 480,
  38, 482,
  38, 483,
  38, 484,
  38, 485,
  38, 487,
  38, 491,
  38, 492,
  38, 493,
  38, 495,
  38, 496,
  38, 498,
  38, 500,
  39, 40,
  39, 41,
  39, 46,
  39, 48,
  39, 49,
  39, 50,
  39, 52,
  39, 53,
  39, 60,
  39, 63,
  39, 64,
  39, 66,
  39, 67,
  39, 69,
  39, 70,
  39, 72,
  39, 73,
  39, 74,
  39, 78,
  39, 79,
  39, 82,
  39, 83,
  39, 85,
  39, 86,
  39, 87,
  39, 88,
  39, 89,
  39, 94,
  39, 98,
  39, 99,
  39, 105,
  39, 106,
  39, 109,
  39, 111,
  39, 113,
  39, 114,
  39, 117,
  39, 123,
  39, 124,
  39, 125,
  39, 127,
  39, 128,
  39, 129,
  39, 130,
  39, 132,
  39, 134,
  39, 135,
  39, 136,
  39, 137,
  39, 138,
  39, 140,
  39, 142,
  39, 143,
  39, 145,
  39, 146,
  39, 147,
  39, 149,
  39, 153,
  39, 154,
  39, 158,
  39, 160,
  39, 161,
  39, 163,
  39, 164,
  39, 165,
  39, 169,
  39, 171,
  39, 176,
  39, 177,
  39, 178,
  39, 182,
  39, 184,
  39, 187,
  39, 190,
  39, 191,
  39, 192,
  39, 193,
  39, 198,
  39, 199,
  39, 200,
  39, 204,
  39, 207,
  39, 209,
  39, 210,
  39, 212,
  39, 213,
  39, 217,
  39, 218,
  39, 222,
  39, 225,
  39, 227,
  39, 228,
  39, 229,
  39, 233,
  39, 234,
  39, 236,
  39, 237,
  39, 240,
  39, 241,
  39, 242,
  39, 243,
  39, 244,
  39, 245,
  39, 246,
  39, 248,
  39, 249,
  39, 251,
  39, 253,
  39, 255,
  39, 256,
  39, 257,
  39, 259,
  39, 260,
  39, 261,
  39, 265,
  39, 266,
  39, 267,
  39, 268,
  39, 269,
  39, 271,
  39, 272,
  39, 273,
  39, 278,
  39, 280,
  39, 283,
  39, 284,
  39, 285,
  39, 287,
  39, 293,
  39, 295,
  39, 296,
  39, 298,
  39, 299,
  39, 300,
  39, 302,
  39, 303,
  39, 304,
  39, 305,
  39, 306,
  39, 308,
  39, 311,
  39, 313,
  39, 314,
  39, 315,
  39, 318,
  39, 319,
  39, 320,
  39, 323,
  39, 327,
  39, 330,
  39, 331,
  39, 332,
  39, 333,
  39, 335,
  39, 336,
  39, 337,
  39, 338,
  39, 342,
  39, 345,
  39, 346,
  39, 350,
  39, 352,
  39, 353,
  39, 355,
  39, 356,
  39, 357,
  39, 358,
  39, 361,
  39, 362,
  39, 364,
  39, 367,
  39, 373,
  39, 377,
  39, 378,
  39, 379,
  39, 380,
  39, 386,
  39, 388,
  39, 390,
  39, 394,
  39, 396,
  39, 397,
  39, 398,
  39, 402,
  39, 403,
  39, 405,
  39, 406,
  39, 407,
  39, 410,
  39, 411,
  39, 412,
  39, 413,
  39, 415,
  39, 420,
  39, 421,
  39, 427,
  39, 428,
  39, 430,
  39, 432,
  39, 435,
  39, 436,
  39, 437,
  39, 438,
  39, 439,
  39, 441,
  39, 443,
  39, 450,
  39, 451,
  39, 452,
  39, 453,
  39, 458,
  39, 461,
  39, 463,
  39, 464,
  39, 466,
  39, 467,
  39, 468,
  39, 469,
  39, 472,
  39, 474,
  39, 476,
  39, 477,
  39, 480,
  39, 483,
  39, 484,
  39, 485,
  39, 486,
  39, 487,
  39, 491,
  39, 497,
  39, 498,
  39, 500,
  40, 41,
  40, 43,
  40, 45,
  40, 47,
  40, 49,
  40, 50,
  40, 51,
  40, 53,
  40, 54,
  40, 56,
  40, 60,
  40, 61,
  40, 63,
  40, 66,
  40, 68,
  40, 71,
  40, 72,
  40, 73,
  40, 74,
  40, 80,
  40, 83,
  40, 88,
  40, 89,
  40, 91,
  40, 95,
  40, 96,
  40, 98,
  40, 99,
  40, 100,
  40, 103,
  40, 104,
  40, 105,
  40, 106,
  40, 107,
  40, 109,
  40, 110,
  40, 113,
  40, 114,
  40, 118,
  40, 119,
  40, 123,
  40, 125,
  40, 126,
  40, 127,
  40, 130,
  40, 133,
  40, 134,
  40, 136,
  40, 137,
  40, 139,
  40, 140,
  40, 142,
  40, 144,
  40, 145,
  40, 146,
  40, 147,
  40, 148,
  40, 152,
  40, 154,
  40, 155,
  40, 162,
  40, 163,
  40, 165,
  40, 167,
  40, 168,
  40, 170,
  40, 171,
  40, 173,
  40, 176,
  40, 177,
  40, 178,
  40, 180,
  40, 181,
  40, 182,
  40, 184,
  40, 185,
  40, 186,
  40, 188,
  40, 189,
  40, 195,
  40, 196,
  40, 197,
  40, 198,
  40, 199,
  40, 201,
  40, 210,
  40, 211,
  40, 212,
  40, 213,
  40, 215,
  40, 216,
  40, 217,
  40, 219,
  40, 221,
  40, 222,
  40, 224,
  40, 229,
  40, 230,
  40, 233,
  40, 234,
  40, 235,
  40, 236,
  40, 237,
  40, 238,
  40, 240,
  40, 242,
  40, 243,
  40, 246,
  40, 247,
  40, 249,
  40, 253,
  40, 255,
  40, 259,
  40, 261,
  40, 262,
  40, 263,
  40, 267,
  40, 268,
  40, 269,
  40, 272,
  40, 275,
  40, 278,
  40, 279,
  40, 283,
  40, 284,
  40, 285,
  40, 287,
  40, 288,
  40, 289,
  40, 292,
  40, 294,
  40, 295,
  40, 296,
  40, 297,
  40, 298,
  40, 299,
  40, 300,
  40, 301,
  40, 302,
  40, 304,
  40, 305,
  40, 310,
  40, 311,
  40, 312,
  40, 313,
  40, 314,
  40, 317,
  40, 319,
  40, 320,
  40, 323,
  40, 327,
  40, 329,
  40, 331,
  40, 335,
  40, 338,
  40, 339,
  40, 340,
  40, 347,
  40, 350,
  40, 351,
  40, 352,
  40, 354,
  40, 359,
  40, 362,
  40, 365,
  40, 366,
  40, 367,
  40, 371,
  40, 376,
  40, 380,
  40, 381,
  40, 382,
  40, 387,
  40, 389,
  40, 390,
  40, 393,
  40, 394,
  40, 397,
  40, 400,
  40, 401,
  40, 403,
  40, 404,
  40, 411,
  40, 412,
  40, 414,
  40, 415,
  40, 418,
  40, 420,
  40, 421,
  40, 423,
  40, 424,
  40, 427,
  40, 429,
  40, 432,
  40, 434,
  40, 439,
  40, 442,
  40, 443,
  40, 444,
  40, 445,
  40, 448,
  40, 453,
  40, 456,
  40, 458,
  40, 461,
  40, 462,
  40, 463,
  40, 467,
  40, 468,
  40, 469,
  40, 471,
  40, 472,
  40, 474,
  40, 475,
  40, 479,
  40, 481,
  40, 482,
  40, 483,
  40, 484,
  40, 485,
  40, 487,
  40, 490,
  40, 492,
  40, 494,
  40, 495,
  40, 496,
  40, 497,
  40, 498,
  40, 499,
  40, 500,
  41, 42,
  41, 44,
  41, 45,
  41, 46,
  41, 48,
  41, 53,
  41, 54,
  41, 55,
  41, 56,
  41, 57,
  41, 59,
  41, 60,
  41, 61,
  41, 62,
  41, 64,
  41, 65,
  41, 67,
  41, 68,
  41, 69,
  41, 70,
  41, 71,
  41, 72,
  41, 74,
  41, 75,
  41, 77,
  41, 79,
  41, 80,
  41, 82,
  41, 87,
  41, 88,
  41, 89,
  41, 90,
  41, 91,
  41, 92,
  41, 93,
  41, 95,
  41, 96,
  41, 98,
  41, 102,
  41, 104,
  41, 107,
  41, 108,
  41, 112,
  41, 116,
  41, 120,
  41, 121,
  41, 123,
  41, 125,
  41, 127,
  41, 128,
  41, 129,
  41, 137,
  41, 140,
  41, 141,
  41, 142,
  41, 143,
  41, 144,
  41, 148,
  41, 150,
  41, 153,
  41, 154,
  41, 156,
  41, 157,
  41, 158,
  41, 160,
  41, 161,
  41, 166,
  41, 167,
  41, 172,
  41, 177,
  41, 178,
  41, 182,
  41, 183,
  41, 184,
  41, 186,
  41, 187,
  41, 188,
  41, 189,
  41, 190,
  41, 191,
  41, 192,
  41, 195,
  41, 198,
  41, 201,
  41, 202,
  41, 204,
  41, 205,
  41, 208,
  41, 210,
  41, 213,
  41, 215,
  41, 216,
  41, 218,
  41, 219,
  41, 221,
  41, 224,
  41, 226,
  41, 229,
  41, 230,
  41, 232,
  41, 233,
  41, 234,
  41, 237,
  41, 238,
  41, 239,
  41, 242,
  41, 246,
  41, 247,
  41, 248,
  41, 250,
  41, 251,
  41, 253,
  41, 255,
  41, 256,
  41, 257,
  41, 260,
  41, 264,
  41, 265,
  41, 266,
  41, 268,
  41, 269,
  41, 270,
  41, 271,
  41, 272,
  41, 273,
  41, 276,
  41, 278,
  41, 282,
  41, 283,
  41, 287,
  41, 288,
  41, 290,
  41, 291,
  41, 297,
  41, 301,
  41, 304,
  41, 305,
  41, 306,
  41, 308,
  41, 312,
  41, 316,
  41, 317,
  41, 319,
  41, 320,
  41, 324,
  41, 327,
  41, 332,
  41, 337,
  41, 338,
  41, 340,
  41, 342,
  41, 345,
  41, 346,
  41, 347,
  41, 348,
  41, 350,
  41, 351,
  41, 353,
  41, 354,
  41, 355,
  41, 357,
  41, 359,
  41, 360,
  41, 362,
  41, 365,
  41, 367,
  41, 368,
  41, 369,
  41, 376,
  41, 377,
  41, 378,
  41, 379,
  41, 381,
  41, 382,
  41, 383,
  41, 384,
  41, 385,
  41, 388,
  41, 389,
  41, 390,
  41, 393,
  41, 394,
  41, 395,
  41, 398,
  41, 401,
  41, 402,
  41, 405,
  41, 406,
  41, 407,
  41, 408,
  41, 410,
  41, 411,
  41, 413,
  41, 420,
  41, 422,
  41, 423,
  41, 424,
  41, 426,
  41, 427,
  41, 428,
  41, 433,
  41, 435,
  41, 438,
  41, 439,
  41, 441,
  41, 442,
  41, 448,
  41, 450,
  41, 451,
  41, 453,
  41, 454,
  41, 456,
  41, 457,
  41, 458,
  41, 460,
  41, 461,
  41, 464,
  41, 467,
  41, 470,
  41, 473,
  41, 474,
  41, 475,
  41, 476,
  41, 478,
  41, 481,
  41, 484,
  41, 485,
  41, 489,
  41, 491,
  41, 496,
  41, 497,
  41, 498,
  41, 500,
  42, 43,
  42, 44,
  42, 46,
  42, 48,
  42, 52,
  42, 55,
  42, 56,
  42, 57,
  42, 59,
  42, 60,
  42, 61,
  42, 62,
  42, 63,
  42, 65,
  42, 66,
  42, 71,
  42, 72,
  42, 75,
  42, 76,
  42, 77,
  42, 78,
  42, 80,
  42, 81,
  42, 82,
  42, 88,
  42, 89,
  42, 91,
  42, 96,
  42, 97,
  42, 98,
  42, 99,
  42, 101,
  42, 102,
  42, 112,
  42, 114,
  42, 118,
  42, 120,
  42, 121,
  42, 122,
  42, 124,
  42, 128,
  42, 129,
  42, 130,
  42, 131,
  42, 139,
  42, 141,
  42, 142,
  42, 143,
  42, 145,
  42, 146,
  42, 148,
  42, 149,
  42, 150,
  42, 151,
  42, 152,
  42, 154,
  42, 156,
  42, 158,
  42, 160,
  42, 162,
  42, 163,
  42, 164,
  42, 165,
  42, 166,
  42, 167,
  42, 168,
  42, 173,
  42, 174,
  42, 177,
  42, 183,
  42, 185,
  42, 187,
  42, 188,
  42, 189,
  42, 190,
  42, 192,
  42, 193,
  42, 194,
  42, 195,
  42, 197,
  42, 199,
  42, 204,
  42, 205,
  42, 206,
  42, 209,
  42, 211,
  42, 213,
  42, 215,
  42, 217,
  42, 218,
  42, 220,
  42, 221,
  42, 222,
  42, 223,
  42, 228,
  42, 231,
  42, 232,
  42, 234,
  42, 239,
  42, 240,
  42, 242,
  42, 243,
  42, 244,
  42, 245,
  42, 246,
  42, 247,
  42, 248,
  42, 250,
  42, 251,
  42, 257,
  42, 259,
  42, 261,
  42, 262,
  42, 263,
  42, 266,
  42, 273,
  42, 274,
  42, 276,
  42, 281,
  42, 282,
  42, 289,
  42, 291,
  42, 293,
  42, 294,
  42, 296,
  42, 298,
  42, 300,
  42, 303,
  42, 304,
  42, 308,
  42, 310,
  42, 314,
  42, 316,
  42, 319,
  42, 320,
  42, 321,
  42, 323,
  42, 324,
  42, 326,
  42, 328,
  42, 329,
  42, 330,
  42, 331,
  42, 332,
  42, 333,
  42, 334,
  42, 337,
  42, 338,
  42, 340,
  42, 341,
  42, 343,
  42, 344,
  42, 348,
  42, 350,
  42, 351,
  42, 356,
  42, 358,
  42, 359,
  42, 360,
  42, 362,
  42, 363,
  42, 364,
  42, 365,
  42, 366,
  42, 368,
  42, 369,
  42, 370,
  42, 371,
  42, 372,
  42, 373,
  42, 376,
  42, 378,
  42, 381,
  42, 383,
  42, 384,
  42, 385,
  42, 386,
  42, 387,
  42, 389,
  42, 390,
  42, 392,
  42, 393,
  42, 396,
  42, 397,
  42, 398,
  42, 399,
  42, 400,
  42, 401,
  42, 403,
  42, 404,
  42, 406,
  42, 409,
  42, 412,
  42, 414,
  42, 416,
  42, 418,
  42, 420,
  42, 421,
  42, 423,
  42, 427,
  42, 430,
  42, 434,
  42, 435,
  42, 440,
  42, 442,
  42, 443,
  42, 451,
  42, 452,
  42, 455,
  42, 456,
  42, 458,
  42, 459,
  42, 460,
  42, 462,
  42, 464,
  42, 465,
  42, 466,
  42, 467,
  42, 468,
  42, 470,
  42, 471,
  42, 472,
  42, 474,
  42, 476,
  42, 479,
  42, 480,
  42, 481,
  42, 483,
  42, 484,
  42, 485,
  42, 487,
  42, 488,
  42, 489,
  42, 492,
  42, 495,
  42, 496,
  42, 497,
  42, 498,
  42, 500,
  43, 45,
  43, 46,
  43, 47,
  43, 48,
  43, 49,
  43, 59,
  43, 60,
  43, 70,
  43, 71,
  43, 72,
  43, 73,
  43, 74,
  43, 77,
  43, 81,
  43, 82,
  43, 84,
  43, 86,
  43, 87,
  43, 88,
  43, 89,
  43, 91,
  43, 95,
  43, 96,
  43, 97,
  43, 104,
  43, 105,
  43, 106,
  43, 108,
  43, 109,
  43, 110,
  43, 111,
  43, 112,
  43, 114,
  43, 117,
  43, 118,
  43, 119,
  43, 124,
  43, 125,
  43, 126,
  43, 127,
  43, 128,
  43, 130,
  43, 131,
  43, 132,
  43, 133,
  43, 139,
  43, 140,
  43, 147,
  43, 151,
  43, 152,
  43, 154,
  43, 156,
  43, 157,
  43, 161,
  43, 162,
  43, 163,
  43, 167,
  43, 168,
  43, 170,
  43, 171,
  43, 173,
  43, 174,
  43, 178,
  43, 180,
  43, 181,
  43, 183,
  43, 184,
  43, 185,
  43, 186,
  43, 187,
  43, 188,
  43, 191,
  43, 192,
  43, 193,
  43, 194,
  43, 195,
  43, 202,
  43, 205,
  43, 206,
  43, 207,
  43, 208,
  43, 210,
  43, 211,
  43, 218,
  43, 220,
  43, 221,
  43, 222,
  43, 225,
  43, 226,
  43, 227,
  43, 232,
  43, 234,
  43, 235,
  43, 236,
  43, 237,
  43, 241,
  43, 242,
  43, 243,
  43, 245,
  43, 247,
  43, 249,
  43, 251,
  43, 252,
  43, 254,
  43, 255,
  43, 258,
  43, 259,
  43, 261,
  43, 262,
  43, 264,
  43, 265,
  43, 268,
  43, 269,
  43, 271,
  43, 272,
  43, 273,
  43, 275,
  43, 277,
  43, 278,
  43, 279,
  43, 280,
  43, 282,
  43, 283,
  43, 286,
  43, 288,
  43, 292,
  43, 293,
  43, 294,
  43, 295,
  43, 296,
  43, 300,
  43, 303,
  43, 305,
  43, 306,
  43, 308,
  43, 310,
  43, 311,
  43, 317,
  43, 319,
  43, 320,
  43, 323,
  43, 325,
  43, 327,
  43, 328,
  43, 330,
  43, 337,
  43, 338,
  43, 339,
  43, 340,
  43, 342,
  43, 343,
  43, 346,
  43, 347,
  43, 350,
  43, 351,
  43, 355,
  43, 361,
  43, 364,
  43, 366,
  43, 370,
  43, 371,
  43, 372,
  43, 374,
  43, 377,
  43, 379,
  43, 380,
  43, 382,
  43, 386,
  43, 389,
  43, 390,
  43, 394,
  43, 399,
  43, 401,
  43, 404,
  43, 405,
  43, 407,
  43, 409,
  43, 413,
  43, 416,
  43, 418,
  43, 420,
  43, 421,
  43, 424,
  43, 428,
  43, 430,
  43, 432,
  43, 433,
  43, 439,
  43, 440,
  43, 443,
  43, 445,
  43, 446,
  43, 450,
  43, 452,
  43, 453,
  43, 454,
  43, 455,
  43, 456,
  43, 457,
  43, 458,
  43, 459,
  43, 463,
  43, 464,
  43, 465,
  43, 466,
  43, 469,
  43, 471,
  43, 472,
  43, 475,
  43, 476,
  43, 478,
  43, 479,
  43, 480,
  43, 481,
  43, 482,
  43, 484,
  43, 485,
  43, 487,
  43, 489,
  43, 490,
  43, 493,
  43, 494,
  43, 495,
  43, 496,
  43, 497,
  43, 499,
  43, 500,
  44, 45,
  44, 47,
  44, 48,
  44, 49,
  44, 50,
  44, 51,
  44, 56,
  44, 57,
  44, 60,
  44, 61,
  44, 62,
  44, 63,
  44, 65,
  44, 66,
  44, 67,
  44, 70,
  44, 73,
  44, 76,
  44, 77,
  44, 79,
  44, 84,
  44, 85,
  44, 86,
  44, 88,
  44, 90,
  44, 93,
  44, 95,
  44, 97,
  44, 98,
  44, 99,
  44, 101,
  44, 102,
  44, 105,
  44, 106,
  44, 113,
  44, 114,
  44, 115,
  44, 116,
  44, 117,
  44, 118,
  44, 119,
  44, 122,
  44, 123,
  44, 124,
  44, 129,
  44, 131,
  44, 132,
  44, 134,
  44, 140,
  44, 141,
  44, 142,
  44, 143,
  44, 144,
  44, 145,
  44, 146,
  44, 148,
  44, 150,
  44, 151,
  44, 152,
  44, 153,
  44, 154,
  44, 155,
  44, 158,
  44, 159,
  44, 160,
  44, 163,
  44, 164,
  44, 165,
  44, 166,
  44, 167,
  44, 170,
  44, 172,
  44, 173,
  44, 174,
  44, 183,
  44, 184,
  44, 187,
  44, 188,
  44, 189,
  44, 190,
  44, 198,
  44, 199,
  44, 202,
  44, 203,
  44, 204,
  44, 205,
  44, 207,
  44, 208,
  44, 210,
  44, 211,
  44, 212,
  44, 213,
  44, 216,
  44, 217,
  44, 218,
  44, 220,
  44, 221,
  44, 222,
  44, 224,
  44, 225,
  44, 226,
  44, 228,
  44, 229,
  44, 230,
  44, 232,
  44, 233,
  44, 235,
  44, 236,
  44, 238,
  44, 243,
  44, 246,
  44, 248,
  44, 254,
  44, 256,
  44, 257,
  44, 258,
  44, 260,
  44, 261,
  44, 262,
  44, 264,
  44, 265,
  44, 266,
  44, 271,
  44, 272,
  44, 275,
  44, 276,
  44, 278,
  44, 280,
  44, 283,
  44, 288,
  44, 291,
  44, 292,
  44, 293,
  44, 295,
  44, 296,
  44, 301,
  44, 310,
  44, 311,
  44, 314,
  44, 316,
  44, 318,
  44, 320,
  44, 322,
  44, 325,
  44, 326,
  44, 331,
  44, 334,
  44, 335,
  44, 336,
  44, 339,
  44, 342,
  44, 344,
  44, 345,
  44, 351,
  44, 352,
  44, 353,
  44, 355,
  44, 357,
  44, 358,
  44, 361,
  44, 363,
  44, 369,
  44, 370,
  44, 371,
  44, 372,
  44, 374,
  44, 375,
  44, 377,
  44, 379,
  44, 381,
  44, 385,
  44, 390,
  44, 391,
  44, 392,
  44, 394,
  44, 395,
  44, 397,
  44, 399,
  44, 402,
  44, 403,
  44, 408,
  44, 409,
  44, 410,
  44, 414,
  44, 418,
  44, 419,
  44, 420,
  44, 426,
  44, 427,
  44, 428,
  44, 430,
  44, 433,
  44, 435,
  44, 439,
  44, 442,
  44, 443,
  44, 446,
  44, 447,
  44, 448,
  44, 451,
  44, 452,
  44, 454,
  44, 455,
  44, 456,
  44, 457,
  44, 458,
  44, 459,
  44, 460,
  44, 461,
  44, 462,
  44, 464,
  44, 466,
  44, 471,
  44, 472,
  44, 476,
  44, 479,
  44, 480,
  44, 483,
  44, 484,
  44, 485,
  44, 486,
  44, 487,
  44, 488,
  44, 490,
  44, 493,
  44, 494,
  44, 496,
  44, 498,
  44, 500,
  45, 46,
  45, 48,
  45, 50,
  45, 52,
  45, 59,
  45, 60,
  45, 62,
  45, 65,
  45, 70,
  45, 72,
  45, 75,
  45, 76,
  45, 78,
  45, 79,
  45, 80,
  45, 82,
  45, 84,
  45, 85,
  45, 86,
  45, 88,
  45, 90,
  45, 91,
  45, 95,
  45, 96,
  45, 97,
  45, 98,
  45, 102,
  45, 107,
  45, 108,
  45, 110,
  45, 115,
  45, 119,
  45, 127,
  45, 131,
  45, 132,
  45, 133,
  45, 135,
  45, 143,
  45, 144,
  45, 146,
  45, 147,
  45, 149,
  45, 152,
  45, 153,
  45, 154,
  45, 155,
  45, 156,
  45, 158,
  45, 160,
  45, 162,
  45, 163,
  45, 165,
  45, 167,
  45, 170,
  45, 171,
  45, 172,
  45, 175,
  45, 176,
  45, 177,
  45, 178,
  45, 179,
  45, 180,
  45, 182,
  45, 184,
  45, 185,
  45, 186,
  45, 187,
  45, 189,
  45, 191,
  45, 194,
  45, 197,
  45, 199,
  45, 200,
  45, 201,
  45, 202,
  45, 203,
  45, 206,
  45, 209,
  45, 210,
  45, 211,
  45, 212,
  45, 214,
  45, 217,
  45, 219,
  45, 220,
  45, 226,
  45, 227,
  45, 228,
  45, 234,
  45, 235,
  45, 237,
  45, 239,
  45, 241,
  45, 242,
  45, 250,
  45, 253,
  45, 254,
  45, 258,
  45, 261,
  45, 262,
  45, 265,
  45, 268,
  45, 269,
  45, 270,
  45, 272,
  45, 273,
  45, 276,
  45, 277,
  45, 278,
  45, 279,
  45, 286,
  45, 288,
  45, 295,
  45, 298,
  45, 300,
  45, 301,
  45, 302,
  45, 303,
  45, 304,
  45, 305,
  45, 311,
  45, 313,
  45, 314,
  45, 315,
  45, 316,
  45, 317,
  45, 319,
  45, 320,
  45, 324,
  45, 333,
  45, 334,
  45, 339,
  45, 340,
  45, 342,
  45, 344,
  45, 345,
  45, 348,
  45, 349,
  45, 350,
  45, 353,
  45, 354,
  45, 355,
  45, 356,
  45, 357,
  45, 358,
  45, 359,
  45, 361,
  45, 362,
  45, 364,
  45, 365,
  45, 368,
  45, 370,
  45, 372,
  45, 375,
  45, 378,
  45, 382,
  45, 383,
  45, 384,
  45, 385,
  45, 389,
  45, 390,
  45, 391,
  45, 393,
  45, 395,
  45, 397,
  45, 398,
  45, 400,
  45, 401,
  45, 402,
  45, 406,
  45, 409,
  45, 414,
  45, 416,
  45, 421,
  45, 422,
  45, 426,
  45, 427,
  45, 428,
  45, 429,
  45, 430,
  45, 433,
  45, 434,
  45, 440,
  45, 444,
  45, 445,
  45, 446,
  45, 448,
  45, 451,
  45, 457,
  45, 458,
  45, 459,
  45, 461,
  45, 469,
  45, 470,
  45, 472,
  45, 474,
  45, 475,
  45, 479,
  45, 480,
  45, 482,
  45, 484,
  45, 487,
  45, 492,
  45, 493,
  45, 494,
  45, 498,
  46, 49,
  46, 51,
  46, 52,
  46, 53,
  46, 55,
  46, 56,
  46, 57,
  46, 59,
  46, 62,
  46, 63,
  46, 65,
  46, 67,
  46, 68,
  46, 71,
  46, 72,
  46, 76,
  46, 79,
  46, 83,
  46, 84,
  46, 85,
  46, 87,
  46, 89,
  46, 92,
  46, 93,
  46, 94,
  46, 96,
  46, 102,
  46, 104,
  46, 105,
  46, 106,
  46, 107,
  46, 111,
  46, 112,
  46, 114,
  46, 115,
  46, 116,
  46, 117,
  46, 118,
  46, 119,
  46, 121,
  46, 123,
  46, 125,
  46, 126,
  46, 129,
  46, 131,
  46, 133,
  46, 134,
  46, 135,
  46, 136,
  46, 138,
  46, 142,
  46, 144,
  46, 147,
  46, 150,
  46, 155,
  46, 156,
  46, 158,
  46, 160,
  46, 162,
  46, 163,
  46, 164,
  46, 167,
  46, 169,
  46, 172,
  46, 175,
  46, 176,
  46, 178,
  46, 179,
  46, 183,
  46, 184,
  46, 185,
  46, 187,
  46, 188,
  46, 192,
  46, 193,
  46, 194,
  46, 198,
  46, 199,
  46, 202,
  46, 205,
  46, 206,
  46, 211,
  46, 212,
  46, 214,
  46, 215,
  46, 216,
  46, 217,
  46, 220,
  46, 222,
  46, 224,
  46, 225,
  46, 226,
  46, 227,
  46, 229,
  46, 230,
  46, 232,
  46, 234,
  46, 237,
  46, 238,
  46, 239,
  46, 241,
  46, 243,
  46, 244,
  46, 245,
  46, 247,
  46, 248,
  46, 249,
  46, 251,
  46, 252,
  46, 254,
  46, 255,
  46, 256,
  46, 257,
  46, 259,
  46, 262,
  46, 265,
  46, 266,
  46, 270,
  46, 278,
  46, 279,
  46, 281,
  46, 285,
  46, 287,
  46, 288,
  46, 289,
  46, 290,
  46, 293,
  46, 294,
  46, 295,
  46, 296,
  46, 298,
  46, 299,
  46, 301,
  46, 302,
  46, 304,
  46, 305,
  46, 306,
  46, 308,
  46, 310,
  46, 311,
  46, 313,
  46, 316,
  46, 317,
  46, 318,
  46, 319,
  46, 320,
  46, 323,
  46, 324,
  46, 328,
  46, 330,
  46, 332,
  46, 336,
  46, 339,
  46, 341,
  46, 342,
  46, 344,
  46, 347,
  46, 349,
  46, 356,
  46, 358,
  46, 359,
  46, 360,
  46, 361,
  46, 362,
  46, 365,
  46, 367,
  46, 369,
  46, 370,
  46, 375,
  46, 376,
  46, 380,
  46, 383,
  46, 385,
  46, 386,
  46, 388,
  46, 394,
  46, 395,
  46, 398,
  46, 401,
  46, 403,
  46, 404,
  46, 405,
  46, 406,
  46, 407,
  46, 408,
  46, 411,
  46, 412,
  46, 415,
  46, 419,
  46, 423,
  46, 424,
  46, 427,
  46, 428,
  46, 430,
  46, 431,
  46, 432,
  46, 434,
  46, 435,
  46, 436,
  46, 439,
  46, 440,
  46, 442,
  46, 444,
  46, 445,
  46, 447,
  46, 449,
  46, 450,
  46, 452,
  46, 456,
  46, 457,
  46, 460,
  46, 464,
  46, 465,
  46, 469,
  46, 471,
  46, 472,
  46, 473,
  46, 474,
  46, 475,
  46, 477,
  46, 480,
  46, 481,
  46, 486,
  46, 487,
  46, 491,
  46, 492,
  46, 493,
  46, 497,
  46, 500,
  47, 49,
  47, 50,
  47, 51,
  47, 53,
  47, 54,
  47, 55,
  47, 56,
  47, 58,
  47, 61,
  47, 62,
  47, 63,
  47, 64,
  47, 65,
  47, 66,
  47, 67,
  47, 70,
  47, 77,
  47, 78,
  47, 80,
  47, 82,
  47, 85,
  47, 86,
  47, 90,
  47, 96,
  47, 98,
  47, 100,
  47, 102,
  47, 109,
  47, 119,
  47, 120,
  47, 121,
  47, 123,
  47, 127,
  47, 128,
  47, 130,
  47, 133,
  47, 136,
  47, 142,
  47, 143,
  47, 145,
  47, 149,
  47, 150,
  47, 158,
  47, 160,
  47, 162,
  47, 164,
  47, 165,
  47, 170,
  47, 173,
  47, 175,
  47, 176,
  47, 181,
  47, 183,
  47, 186,
  47, 189,
  47, 190,
  47, 191,
  47, 193,
  47, 194,
  47, 196,
  47, 197,
  47, 198,
  47, 199,
  47, 200,
  47, 206,
  47, 212,
  47, 213,
  47, 214,
  47, 216,
  47, 218,
  47, 219,
  47, 220,
  47, 221,
  47, 222,
  47, 224,
  47, 226,
  47, 227,
  47, 230,
  47, 235,
  47, 236,
  47, 237,
  47, 240,
  47, 242,
  47, 245,
  47, 246,
  47, 247,
  47, 249,
  47, 254,
  47, 255,
  47, 256,
  47, 259,
  47, 261,
  47, 262,
  47, 263,
  47, 267,
  47, 269,
  47, 270,
  47, 275,
  47, 281,
  47, 282,
  47, 283,
  47, 292,
  47, 294,
  47, 295,
  47, 297,
  47, 298,
  47, 299,
  47, 301,
  47, 302,
  47, 304,
  47, 306,
  47, 307,
  47, 308,
  47, 309,
  47, 310,
  47, 311,
  47, 312,
  47, 315,
  47, 316,
  47, 318,
  47, 319,
  47, 322,
  47, 324,
  47, 325,
  47, 327,
  47, 330,
  47, 331,
  47, 333,
  47, 336,
  47, 337,
  47, 338,
  47, 341,
  47, 342,
  47, 344,
  47, 346,
  47, 347,
  47, 348,
  47, 349,
  47, 353,
  47, 358,
  47, 359,
  47, 360,
  47, 364,
  47, 365,
  47, 366,
  47, 369,
  47, 370,
  47, 372,
  47, 374,
  47, 375,
  47, 376,
  47, 382,
  47, 383,
  47, 385,
  47, 388,
  47, 390,
  47, 393,
  47, 394,
  47, 395,
  47, 396,
  47, 398,
  47, 399,
  47, 400,
  47, 401,
  47, 402,
  47, 403,
  47, 404,
  47, 405,
  47, 406,
  47, 411,
  47, 412,
  47, 415,
  47, 417,
  47, 418,
  47, 421,
  47, 424,
  47, 425,
  47, 428,
  47, 429,
  47, 430,
  47, 431,
  47, 432,
  47, 435,
  47, 439,
  47, 440,
  47, 444,
  47, 445,
  47, 446,
  47, 448,
  47, 449,
  47, 452,
  47, 453,
  47, 454,
  47, 455,
  47, 458,
  47, 459,
  47, 460,
  47, 463,
  47, 464,
  47, 466,
  47, 467,
  47, 474,
  47, 477,
  47, 480,
  47, 481,
  47, 482,
  47, 484,
  47, 485,
  47, 486,
  47, 487,
  47, 489,
  47, 495,
  47, 499,
  47, 500,
  48, 50,
  48, 52,
  48, 53,
  48, 56,
  48, 61,
  48, 62,
  48, 63,
  48, 65,
  48, 66,
  48, 67,
  48, 68,
  48, 69,
  48, 70,
  48, 71,
  48, 72,
  48, 73,
  48, 74,
  48, 76,
  48, 77,
  48, 78,
  48, 79,
  48, 81,
  48, 82,
  48, 83,
  48, 84,
  48, 92,
  48, 94,
  48, 95,
  48, 96,
  48, 97,
  48, 102,
  48, 104,
  48, 105,
  48, 106,
  48, 108,
  48, 109,
  48, 110,
  48, 112,
  48, 113,
  48, 115,
  48, 116,
  48, 121,
  48, 122,
  48, 123,
  48, 124,
  48, 126,
  48, 127,
  48, 128,
  48, 129,
  48, 131,
  48, 132,
  48, 133,
  48, 138,
  48, 139,
  48, 141,
  48, 142,
  48, 144,
  48, 145,
  48, 146,
  48, 147,
  48, 153,
  48, 154,
  48, 155,
  48, 156,
  48, 160,
  48, 161,
  48, 163,
  48, 165,
  48, 167,
  48, 169,
  48, 170,
  48, 174,
  48, 175,
  48, 177,
  48, 178,
  48, 179,
  48, 180,
  48, 183,
  48, 186,
  48, 187,
  48, 189,
  48, 190,
  48, 191,
  48, 192,
  48, 193,
  48, 194,
  48, 197,
  48, 198,
  48, 199,
  48, 201,
  48, 203,
  48, 204,
  48, 207,
  48, 211,
  48, 212,
  48, 217,
  48, 219,
  48, 223,
  48, 225,
  48, 226,
  48, 227,
  48, 230,
  48, 234,
  48, 235,
  48, 236,
  48, 239,
  48, 241,
  48, 243,
  48, 244,
  48, 246,
  48, 247,
  48, 250,
  48, 253,
  48, 254,
  48, 255,
  48, 256,
  48, 257,
  48, 259,
  48, 260,
  48, 262,
  48, 263,
  48, 264,
  48, 267,
  48, 268,
  48, 269,
  48, 271,
  48, 272,
  48, 273,
  48, 275,
  48, 278,
  48, 280,
  48, 281,
  48, 282,
  48, 283,
  48, 285,
  48, 286,
  48, 291,
  48, 294,
  48, 296,
  48, 297,
  48, 299,
  48, 300,
  48, 301,
  48, 303,
  48, 304,
  48, 306,
  48, 307,
  48, 308,
  48, 309,
  48, 311,
  48, 313,
  48, 318,
  48, 319,
  48, 322,
  48, 324,
  48, 326,
  48, 327,
  48, 330,
  48, 331,
  48, 332,
  48, 333,
  48, 334,
  48, 337,
  48, 338,
  48, 339,
  48, 340,
  48, 345,
  48, 347,
  48, 349,
  48, 350,
  48, 351,
  48, 352,
  48, 354,
  48, 357,
  48, 359,
  48, 360,
  48, 361,
  48, 363,
  48, 365,
  48, 370,
  48, 372,
  48, 373,
  48, 375,
  48, 380,
  48, 382,
  48, 384,
  48, 385,
  48, 386,
  48, 387,
  48, 388,
  48, 389,
  48, 391,
  48, 392,
  48, 393,
  48, 394,
  48, 397,
  48, 400,
  48, 401,
  48, 402,
  48, 403,
  48, 404,
  48, 405,
  48, 406,
  48, 410,
  48, 411,
  48, 412,
  48, 414,
  48, 415,
  48, 416,
  48, 417,
  48, 418,
  48, 421,
  48, 423,
  48, 425,
  48, 427,
  48, 428,
  48, 430,
  48, 431,
  48, 432,
  48, 436,
  48, 437,
  48, 440,
  48, 441,
  48, 442,
  48, 443,
  48, 449,
  48, 450,
  48, 453,
  48, 455,
  48, 456,
  48, 462,
  48, 470,
  48, 472,
  48, 473,
  48, 474,
  48, 475,
  48, 476,
  48, 477,
  48, 483,
  48, 484,
  48, 486,
  48, 488,
  48, 491,
  48, 492,
  48, 493,
  48, 495,
  48, 496,
  48, 497,
  48, 500,
  49, 51,
  49, 55,
  49, 57,
  49, 60,
  49, 63,
  49, 67,
  49, 68,
  49, 69,
  49, 71,
  49, 76,
  49, 77,
  49, 78,
  49, 79,
  49, 80,
  49, 81,
  49, 82,
  49, 83,
  49, 85,
  49, 87,
  49, 88,
  49, 90,
  49, 92,
  49, 95,
  49, 96,
  49, 97,
  49, 98,
  49, 100,
  49, 101,
  49, 102,
  49, 103,
  49, 105,
  49, 108,
  49, 113,
  49, 115,
  49, 116,
  49, 118,
  49, 119,
  49, 121,
  49, 124,
  49, 126,
  49, 127,
  49, 131,
  49, 132,
  49, 133,
  49, 134,
  49, 137,
  49, 138,
  49, 139,
  49, 140,
  49, 141,
  49, 145,
  49, 148,
  49, 149,
  49, 151,
  49, 153,
  49, 155,
  49, 160,
  49, 161,
  49, 162,
  49, 163,
  49, 164,
  49, 165,
  49, 167,
  49, 170,
  49, 172,
  49, 173,
  49, 175,
  49, 176,
  49, 178,
  49, 181,
  49, 186,
  49, 188,
  49, 190,
  49, 191,
  49, 192,
  49, 194,
  49, 195,
  49, 198,
  49, 199,
  49, 204,
  49, 205,
  49, 206,
  49, 207,
  49, 208,
  49, 209,
  49, 211,
  49, 214,
  49, 216,
  49, 218,
  49, 219,
  49, 221,
  49, 223,
  49, 224,
  49, 227,
  49, 231,
  49, 232,
  49, 233,
  49, 235,
  49, 236,
  49, 238,
  49, 240,
  49, 243,
  49, 244,
  49, 249,
  49, 250,
  49, 251,
  49, 253,
  49, 255,
  49, 256,
  49, 262,
  49, 263,
  49, 264,
  49, 269,
  49, 271,
  49, 273,
  49, 274,
  49, 277,
  49, 278,
  49, 281,
  49, 283,
  49, 284,
  49, 285,
  49, 286,
  49, 288,
  49, 289,
  49, 291,
  49, 292,
  49, 293,
  49, 295,
  49, 296,
  49, 297,
  49, 298,
  49, 300,
  49, 303,
  49, 305,
  49, 306,
  49, 307,
  49, 309,
  49, 310,
  49, 312,
  49, 313,
  49, 316,
  49, 320,
  49, 321,
  49, 323,
  49, 324,
  49, 325,
  49, 326,
  49, 327,
  49, 331,
  49, 333,
  49, 335,
  49, 337,
  49, 341,
  49, 344,
  49, 347,
  49, 348,
  49, 349,
  49, 352,
  49, 353,
  49, 354,
  49, 355,
  49, 356,
  49, 358,
  49, 364,
  49, 365,
  49, 368,
  49, 370,
  49, 372,
  49, 379,
  49, 383,
  49, 384,
  49, 385,
  49, 386,
  49, 390,
  49, 391,
  49, 392,
  49, 394,
  49, 396,
  49, 399,
  49, 400,
  49, 402,
  49, 404,
  49, 405,
  49, 408,
  49, 410,
  49, 411,
  49, 412,
  49, 415,
  49, 416,
  49, 418,
  49, 423,
  49, 424,
  49, 425,
  49, 426,
  49, 432,
  49, 435,
  49, 436,
  49, 440,
  49, 442,
  49, 444,
  49, 445,
  49, 447,
  49, 448,
  49, 449,
  49, 455,
  49, 457,
  49, 459,
  49, 462,
  49, 463,
  49, 466,
  49, 471,
  49, 473,
  49, 475,
  49, 477,
  49, 478,
  49, 481,
  49, 488,
  49, 496,
  49, 499,
  50, 52,
  50, 53,
  50, 55,
  50, 57,
  50, 59,
  50, 60,
  50, 62,
  50, 64,
  50, 66,
  50, 68,
  50, 69,
  50, 70,
  50, 71,
  50, 74,
  50, 75,
  50, 78,
  50, 80,
  50, 81,
  50, 86,
  50, 88,
  50, 89,
  50, 94,
  50, 95,
  50, 97,
  50, 98,
  50, 100,
  50, 102,
  50, 103,
  50, 106,
  50, 108,
  50, 111,
  50, 114,
  50, 116,
  50, 118,
  50, 119,
  50, 120,
  50, 121,
  50, 122,
  50, 127,
  50, 129,
  50, 132,
  50, 134,
  50, 135,
  50, 138,
  50, 140,
  50, 141,
  50, 143,
  50, 146,
  50, 147,
  50, 148,
  50, 149,
  50, 152,
  50, 158,
  50, 159,
  50, 160,
  50, 161,
  50, 162,
  50, 163,
  50, 164,
  50, 167,
  50, 169,
  50, 170,
  50, 174,
  50, 175,
  50, 178,
  50, 180,
  50, 183,
  50, 187,
  50, 191,
  50, 192,
  50, 193,
  50, 195,
  50, 196,
  50, 201,
  50, 202,
  50, 203,
  50, 204,
  50, 205,
  50, 207,
  50, 208,
  50, 209,
  50, 210,
  50, 215,
  50, 216,
  50, 217,
  50, 219,
  50, 222,
  50, 225,
  50, 226,
  50, 228,
  50, 230,
  50, 231,
  50, 234,
  50, 237,
  50, 240,
  50, 241,
  50, 243,
  50, 245,
  50, 247,
  50, 249,
  50, 250,
  50, 251,
  50, 252,
  50, 253,
  50, 254,
  50, 256,
  50, 257,
  50, 260,
  50, 262,
  50, 263,
  50, 265,
  50, 267,
  50, 269,
  50, 272,
  50, 277,
  50, 278,
  50, 280,
  50, 281,
  50, 282,
  50, 283,
  50, 285,
  50, 286,
  50, 289,
  50, 291,
  50, 293,
  50, 294,
  50, 295,
  50, 298,
  50, 299,
  50, 300,
  50, 303,
  50, 304,
  50, 305,
  50, 306,
  50, 316,
  50, 317,
  50, 320,
  50, 322,
  50, 323,
  50, 325,
  50, 327,
  50, 329,
  50, 330,
  50, 331,
  50, 332,
  50, 333,
  50, 335,
  50, 336,
  50, 338,
  50, 339,
  50, 340,
  50, 341,
  50, 343,
  50, 344,
  50, 349,
  50, 350,
  50, 351,
  50, 353,
  50, 354,
  50, 355,
  50, 357,
  50, 359,
  50, 362,
  50, 365,
  50, 366,
  50, 370,
  50, 371,
  50, 372,
  50, 373,
  50, 374,
  50, 376,
  50, 379,
  50, 381,
  50, 384,
  50, 385,
  50, 387,
  50, 389,
  50, 390,
  50, 392,
  50, 393,
  50, 395,
  50, 398,
  50, 399,
  50, 400,
  50, 406,
  50, 407,
  50, 409,
  50, 410,
  50, 412,
  50, 413,
  50, 414,
  50, 415,
  50, 417,
  50, 418,
  50, 419,
  50, 420,
  50, 421,
  50, 422,
  50, 427,
  50, 432,
  50, 434,
  50, 436,
  50, 439,
  50, 440,
  50, 443,
  50, 445,
  50, 447,
  50, 448,
  50, 451,
  50, 452,
  50, 453,
  50, 454,
  50, 455,
  50, 456,
  50, 457,
  50, 458,
  50, 459,
  50, 461,
  50, 466,
  50, 470,
  50, 475,
  50, 481,
  50, 487,
  50, 488,
  50, 489,
  50, 493,
  50, 496,
  50, 498,
  50, 499,
  50, 500,
  51, 55,
  51, 59,
  51, 61,
  51, 62,
  51, 63,
  51, 64,
  51, 67,
  51, 68,
  51, 69,
  51, 72,
  51, 80,
  51, 81,
  51, 82,
  51, 83,
  51, 84,
  51, 85,
  51, 86,
  51, 87,
  51, 88,
  51, 90,
  51, 91,
  51, 93,
  51, 94,
  51, 95,
  51, 98,
  51, 99,
  51, 100,
  51, 101,
  51, 102,
  51, 103,
  51, 105,
  51, 106,
  51, 107,
  51, 108,
  51, 109,
  51, 110,
  51, 111,
  51, 113,
  51, 115,
  51, 118,
  51, 119,
  51, 121,
  51, 122,
  51, 123,
  51, 129,
  51, 130,
  51, 131,
  51, 133,
  51, 134,
  51, 136,
  51, 137,
  51, 139,
  51, 140,
  51, 142,
  51, 143,
  51, 146,
  51, 149,
  51, 152,
  51, 154,
  51, 163,
  51, 165,
  51, 168,
  51, 169,
  51, 171,
  51, 172,
  51, 175,
  51, 177,
  51, 182,
  51, 183,
  51, 184,
  51, 185,
  51, 186,
  51, 187,
  51, 188,
  51, 190,
  51, 191,
  51, 192,
  51, 193,
  51, 196,
  51, 197,
  51, 198,
  51, 202,
  51, 203,
  51, 204,
  51, 206,
  51, 208,
  51, 209,
  51, 210,
  51, 211,
  51, 212,
  51, 213,
  51, 217,
  51, 219,
  51, 220,
  51, 222,
  51, 226,
  51, 227,
  51, 230,
  51, 231,
  51, 232,
  51, 239,
  51, 241,
  51, 242,
  51, 245,
  51, 248,
  51, 249,
  51, 251,
  51, 252,
  51, 253,
  51, 254,
  51, 255,
  51, 257,
  51, 261,
  51, 263,
  51, 264,
  51, 266,
  51, 268,
  51, 269,
  51, 270,
  51, 273,
  51, 275,
  51, 276,
  51, 279,
  51, 281,
  51, 282,
  51, 283,
  51, 284,
  51, 286,
  51, 287,
  51, 288,
  51, 289,
  51, 290,
  51, 291,
  51, 292,
  51, 293,
  51, 295,
  51, 296,
  51, 297,
  51, 298,
  51, 302,
  51, 303,
  51, 304,
  51, 306,
  51, 307,
  51, 311,
  51, 313,
  51, 314,
  51, 317,
  51, 318,
  51, 320,
  51, 321,
  51, 322,
  51, 324,
  51, 325,
  51, 328,
  51, 329,
  51, 331,
  51, 333,
  51, 335,
  51, 336,
  51, 337,
  51, 339,
  51, 340,
  51, 341,
  51, 342,
  51, 343,
  51, 344,
  51, 347,
  51, 350,
  51, 353,
  51, 354,
  51, 355,
  51, 357,
  51, 358,
  51, 360,
  51, 363,
  51, 366,
  51, 369,
  51, 370,
  51, 371,
  51, 372,
  51, 373,
  51, 375,
  51, 377,
  51, 378,
  51, 381,
  51, 382,
  51, 383,
  51, 386,
  51, 387,
  51, 389,
  51, 390,
  51, 392,
  51, 394,
  51, 395,
  51, 396,
  51, 397,
  51, 399,
  51, 400,
  51, 401,
  51, 402,
  51, 403,
  51, 404,
  51, 405,
  51, 406,
  51, 408,
  51, 409,
  51, 410,
  51, 412,
  51, 414,
  51, 415,
  51, 419,
  51, 421,
  51, 422,
  51, 423,
  51, 424,
  51, 430,
  51, 432,
  51, 433,
  51, 436,
  51, 439,
  51, 441,
  51, 442,
  51, 444,
  51, 446,
  51, 448,
  51, 451,
  51, 452,
  51, 456,
  51, 458,
  51, 459,
  51, 462,
  51, 464,
  51, 465,
  51, 466,
  51, 469,
  51, 470,
  51, 471,
  51, 472,
  51, 473,
  51, 474,
  51, 477,
  51, 478,
  51, 479,
  51, 480,
  51, 481,
  51, 482,
  51, 483,
  51, 489,
  51, 490,
  51, 492,
  51, 495,
  51, 497,
  51, 499,
  51, 500,
  52, 54,
  52, 57,
  52, 58,
  52, 59,
  52, 62,
  52, 63,
  52, 64,
  52, 67,
  52, 68,
  52, 74,
  52, 75,
  52, 85,
  52, 87,
  52, 91,
  52, 94,
  52, 95,
  52, 97,
  52, 101,
  52, 105,
  52, 106,
  52, 108,
  52, 109,
  52, 114,
  52, 115,
  52, 116,
  52, 117,
  52, 118,
  52, 120,
  52, 121,
  52, 123,
  52, 125,
  52, 130,
  52, 133,
  52, 134,
  52, 135,
  52, 136,
  52, 137,
  52, 138,
  52, 139,
  52, 142,
  52, 143,
  52, 144,
  52, 145,
  52, 146,
  52, 148,
  52, 149,
  52, 150,
  52, 152,
  52, 153,
  52, 154,
  52, 156,
  52, 161,
  52, 162,
  52, 163,
  52, 164,
  52, 166,
  52, 167,
  52, 172,
  52, 176,
  52, 177,
  52, 184,
  52, 187,
  52, 190,
  52, 191,
  52, 192,
  52, 193,
  52, 197,
  52, 198,
  52, 199,
  52, 201,
  52, 203,
  52, 207,
  52, 208,
  52, 209,
  52, 210,
  52, 213,
  52, 215,
  52, 216,
  52, 217,
  52, 218,
  52, 220,
  52, 221,
  52, 223,
  52, 226,
  52, 227,
  52, 228,
  52, 232,
  52, 234,
  52, 235,
  52, 237,
  52, 238,
  52, 241,
  52, 244,
  52, 247,
  52, 252,
  52, 253,
  52, 256,
  52, 258,
  52, 259,
  52, 263,
  52, 264,
  52, 265,
  52, 267,
  52, 269,
  52, 274,
  52, 275,
  52, 276,
  52, 277,
  52, 278,
  52, 279,
  52, 284,
  52, 285,
  52, 289,
  52, 290,
  52, 292,
  52, 293,
  52, 295,
  52, 297,
  52, 298,
  52, 301,
  52, 304,
  52, 308,
  52, 310,
  52, 311,
  52, 312,
  52, 314,
  52, 316,
  52, 318,
  52, 319,
  52, 320,
  52, 323,
  52, 325,
  52, 326,
  52, 327,
  52, 328,
  52, 330,
  52, 334,
  52, 335,
  52, 339,
  52, 341,
  52, 342,
  52, 348,
  52, 350,
  52, 351,
  52, 356,
  52, 357,
  52, 360,
  52, 362,
  52, 364,
  52, 366,
  52, 368,
  52, 371,
  52, 375,
  52, 377,
  52, 378,
  52, 381,
  52, 383,
  52, 385,
  52, 386,
  52, 388,
  52, 392,
  52, 393,
  52, 395,
  52, 397,
  52, 398,
  52, 402,
  52, 405,
  52, 406,
  52, 408,
  52, 409,
  52, 410,
  52, 412,
  52, 413,
  52, 415,
  52, 419,
  52, 423,
  52, 430,
  52, 434,
  52, 438,
  52, 441,
  52, 443,
  52, 444,
  52, 448,
  52, 452,
  52, 453,
  52, 454,
  52, 456,
  52, 458,
  52, 462,
  52, 463,
  52, 464,
  52, 465,
  52, 467,
  52, 468,
  52, 470,
  52, 472,
  52, 474,
  52, 475,
  52, 477,
  52, 479,
  52, 480,
  52, 482,
  52, 483,
  52, 485,
  52, 487,
  52, 488,
  52, 489,
  52, 491,
  52, 492,
  52, 495,
  52, 496,
  52, 497,
  53, 54,
  53, 60,
  53, 61,
  53, 68,
  53, 69,
  53, 71,
  53, 72,
  53, 73,
  53, 76,
  53, 77,
  53, 79,
  53, 80,
  53, 84,
  53, 87,
  53, 89,
  53, 91,
  53, 96,
  53, 99,
  53, 100,
  53, 102,
  53, 105,
  53, 108,
  53, 110,
  53, 111,
  53, 112,
  53, 114,
  53, 116,
  53, 121,
  53, 125,
  53, 126,
  53, 129,
  53, 130,
  53, 132,
  53, 133,
  53, 134,
  53, 135,
  53, 136,
  53, 137,
  53, 139,
  53, 140,
  53, 143,
  53, 144,
  53, 145,
  53, 146,
  53, 147,
  53, 149,
  53, 150,
  53, 151,
  53, 153,
  53, 155,
  53, 158,
  53, 160,
  53, 161,
  53, 162,
  53, 163,
  53, 164,
  53, 166,
  53, 167,
  53, 168,
  53, 170,
  53, 171,
  53, 172,
  53, 174,
  53, 176,
  53, 178,
  53, 180,
  53, 181,
  53, 184,
  53, 185,
  53, 186,
  53, 187,
  53, 188,
  53, 191,
  53, 196,
  53, 198,
  53, 200,
  53, 201,
  53, 205,
  53, 206,
  53, 207,
  53, 208,
  53, 210,
  53, 211,
  53, 213,
  53, 214,
  53, 215,
  53, 216,
  53, 217,
  53, 218,
  53, 219,
  53, 222,
  53, 223,
  53, 225,
  53, 226,
  53, 228,
  53, 229,
  53, 233,
  53, 234,
  53, 237,
  53, 238,
  53, 239,
  53, 241,
  53, 244,
  53, 246,
  53, 251,
  53, 252,
  53, 254,
  53, 260,
  53, 261,
  53, 263,
  53, 264,
  53, 265,
  53, 267,
  53, 270,
  53, 272,
  53, 273,
  53, 274,
  53, 277,
  53, 278,
  53, 279,
  53, 282,
  53, 284,
  53, 285,
  53, 289,
  53, 295,
  53, 297,
  53, 299,
  53, 300,
  53, 301,
  53, 302,
  53, 305,
  53, 306,
  53, 307,
  53, 310,
  53, 315,
  53, 317,
  53, 318,
  53, 319,
  53, 322,
  53, 324,
  53, 325,
  53, 339,
  53, 341,
  53, 344,
  53, 345,
  53, 346,
  53, 347,
  53, 351,
  53, 352,
  53, 353,
  53, 357,
  53, 360,
  53, 361,
  53, 364,
  53, 365,
  53, 369,
  53, 370,
  53, 373,
  53, 378,
  53, 380,
  53, 383,
  53, 385,
  53, 386,
  53, 389,
  53, 391,
  53, 392,
  53, 393,
  53, 395,
  53, 399,
  53, 402,
  53, 403,
  53, 405,
  53, 406,
  53, 409,
  53, 410,
  53, 412,
  53, 414,
  53, 418,
  53, 420,
  53, 421,
  53, 429,
  53, 430,
  53, 433,
  53, 439,
  53, 441,
  53, 442,
  53, 443,
  53, 445,
  53, 447,
  53, 449,
  53, 451,
  53, 452,
  53, 453,
  53, 458,
  53, 461,
  53, 466,
  53, 467,
  53, 469,
  53, 471,
  53, 474,
  53, 475,
  53, 476,
  53, 477,
  53, 479,
  53, 481,
  53, 482,
  53, 485,
  53, 486,
  53, 487,
  53, 488,
  53, 493,
  53, 495,
  53, 499,
  54, 57,
  54, 59,
  54, 60,
  54, 63,
  54, 65,
  54, 67,
  54, 71,
  54, 74,
  54, 75,
  54, 80,
  54, 81,
  54, 86,
  54, 87,
  54, 88,
  54, 91,
  54, 92,
  54, 94,
  54, 97,
  54, 98,
  54, 101,
  54, 103,
  54, 105,
  54, 106,
  54, 107,
  54, 109,
  54, 110,
  54, 114,
  54, 116,
  54, 118,
  54, 122,
  54, 123,
  54, 124,
  54, 126,
  54, 131,
  54, 134,
  54, 136,
  54, 137,
  54, 138,
  54, 141,
  54, 143,
  54, 144,
  54, 147,
  54, 149,
  54, 153,
  54, 154,
  54, 156,
  54, 159,
  54, 160,
  54, 163,
  54, 165,
  54, 166,
  54, 167,
  54, 168,
  54, 170,
  54, 173,
  54, 176,
  54, 178,
  54, 179,
  54, 180,
  54, 181,
  54, 183,
  54, 186,
  54, 188,
  54, 189,
  54, 190,
  54, 191,
  54, 193,
  54, 194,
  54, 195,
  54, 196,
  54, 197,
  54, 198,
  54, 199,
  54, 201,
  54, 202,
  54, 203,
  54, 204,
  54, 205,
  54, 208,
  54, 211,
  54, 212,
  54, 216,
  54, 219,
  54, 220,
  54, 223,
  54, 224,
  54, 225,
  54, 228,
  54, 229,
  54, 231,
  54, 232,
  54, 233,
  54, 234,
  54, 235,
  54, 237,
  54, 240,
  54, 244,
  54, 245,
  54, 247,
  54, 249,
  54, 250,
  54, 253,
  54, 254,
  54, 256,
  54, 257,
  54, 258,
  54, 260,
  54, 264,
  54, 265,
  54, 269,
  54, 270,
  54, 271,
  54, 272,
  54, 275,
  54, 276,
  54, 277,
  54, 278,
  54, 282,
  54, 285,
  54, 286,
  54, 289,
  54, 290,
  54, 292,
  54, 294,
  54, 298,
  54, 299,
  54, 307,
  54, 309,
  54, 311,
  54, 312,
  54, 313,
  54, 314,
  54, 315,
  54, 316,
  54, 318,
  54, 319,
  54, 322,
  54, 323,
  54, 325,
  54, 326,
  54, 327,
  54, 328,
  54, 329,
  54, 330,
  54, 331,
  54, 332,
  54, 333,
  54, 336,
  54, 337,
  54, 340,
  54, 342,
  54, 343,
  54, 349,
  54, 350,
  54, 351,
  54, 354,
  54, 355,
  54, 356,
  54, 358,
  54, 359,
  54, 361,
  54, 362,
  54, 363,
  54, 364,
  54, 366,
  54, 367,
  54, 368,
  54, 369,
  54, 370,
  54, 373,
  54, 384,
  54, 386,
  54, 391,
  54, 392,
  54, 393,
  54, 397,
  54, 398,
  54, 399,
  54, 402,
  54, 404,
  54, 405,
  54, 411,
  54, 415,
  54, 418,
  54, 419,
  54, 420,
  54, 421,
  54, 426,
  54, 428,
  54, 429,
  54, 431,
  54, 432,
  54, 436,
  54, 439,
  54, 441,
  54, 444,
  54, 447,
  54, 448,
  54, 449,
  54, 450,
  54, 451,
  54, 452,
  54, 453,
  54, 456,
  54, 460,
  54, 461,
  54, 462,
  54, 463,
  54, 467,
  54, 473,
  54, 474,
  54, 475,
  54, 477,
  54, 478,
  54, 479,
  54, 480,
  54, 481,
  54, 482,
  54, 483,
  54, 486,
  54, 490,
  54, 495,
  54, 497,
  55, 56,
  55, 57,
  55, 59,
  55, 61,
  55, 62,
  55, 63,
  55, 64,
  55, 66,
  55, 68,
  55, 71,
  55, 72,
  55, 75,
  55, 76,
  55, 78,
  55, 79,
  55, 81,
  55, 83,
  55, 84,
  55, 85,
  55, 87,
  55, 88,
  55, 93,
  55, 96,
  55, 97,
  55, 98,
  55, 99,
  55, 100,
  55, 101,
  55, 102,
  55, 103,
  55, 104,
  55, 108,
  55, 109,
  55, 112,
  55, 113,
  55, 114,
  55, 115,
  55, 117,
  55, 118,
  55, 119,
  55, 120,
  55, 122,
  55, 123,
  55, 130,
  55, 131,
  55, 133,
  55, 134,
  55, 137,
  55, 144,
  55, 145,
  55, 147,
  55, 150,
  55, 157,
  55, 158,
  55, 159,
  55, 160,
  55, 161,
  55, 162,
  55, 163,
  55, 164,
  55, 165,
  55, 167,
  55, 171,
  55, 172,
  55, 174,
  55, 178,
  55, 180,
  55, 182,
  55, 187,
  55, 188,
  55, 190,
  55, 191,
  55, 192,
  55, 202,
  55, 204,
  55, 206,
  55, 209,
  55, 211,
  55, 212,
  55, 214,
  55, 216,
  55, 217,
  55, 218,
  55, 219,
  55, 222,
  55, 223,
  55, 224,
  55, 227,
  55, 228,
  55, 229,
  55, 230,
  55, 231,
  55, 233,
  55, 234,
  55, 239,
  55, 240,
  55, 242,
  55, 245,
  55, 246,
  55, 247,
  55, 249,
  55, 250,
  55, 251,
  55, 252,
  55, 253,
  55, 254,
  55, 255,
  55, 258,
  55, 261,
  55, 262,
  55, 265,
  55, 267,
  55, 269,
  55, 271,
  55, 272,
  55, 273,
  55, 274,
  55, 276,
  55, 278,
  55, 279,
  55, 287,
  55, 292,
  55, 293,
  55, 294,
  55, 295,
  55, 296,
  55, 297,
  55, 298,
  55, 299,
  55, 300,
  55, 301,
  55, 303,
  55, 304,
  55, 305,
  55, 306,
  55, 307,
  55, 309,
  55, 312,
  55, 315,
  55, 317,
  55, 326,
  55, 327,
  55, 331,
  55, 338,
  55, 339,
  55, 340,
  55, 341,
  55, 342,
  55, 343,
  55, 348,
  55, 349,
  55, 350,
  55, 351,
  55, 354,
  55, 356,
  55, 358,
  55, 359,
  55, 361,
  55, 362,
  55, 363,
  55, 364,
  55, 366,
  55, 367,
  55, 368,
  55, 370,
  55, 371,
  55, 372,
  55, 374,
  55, 375,
  55, 376,
  55, 377,
  55, 378,
  55, 380,
  55, 381,
  55, 382,
  55, 383,
  55, 386,
  55, 388,
  55, 391,
  55, 392,
  55, 393,
  55, 395,
  55, 396,
  55, 398,
  55, 400,
  55, 401,
  55, 402,
  55, 404,
  55, 406,
  55, 407,
  55, 410,
  55, 413,
  55, 415,
  55, 417,
  55, 420,
  55, 421,
  55, 422,
  55, 423,
  55, 426,
  55, 427,
  55, 428,
  55, 429,
  55, 433,
  55, 436,
  55, 438,
  55, 439,
  55, 440,
  55, 441,
  55, 442,
  55, 444,
  55, 448,
  55, 450,
  55, 451,
  55, 452,
  55, 456,
  55, 457,
  55, 459,
  55, 460,
  55, 463,
  55, 468,
  55, 469,
  55, 471,
  55, 474,
  55, 476,
  55, 478,
  55, 479,
  55, 480,
  55, 483,
  55, 485,
  55, 487,
  55, 489,
  55, 491,
  55, 492,
  55, 493,
  55, 495,
  55, 497,
  55, 498,
  55, 499,
  56, 61,
  56, 66,
  56, 68,
  56, 72,
  56, 74,
  56, 76,
  56, 78,
  56, 79,
  56, 80,
  56, 81,
  56, 83,
  56, 85,
  56, 86,
  56, 87,
  56, 88,
  56, 89,
  56, 90,
  56, 92,
  56, 93,
  56, 96,
  56, 98,
  56, 99,
  56, 103,
  56, 107,
  56, 108,
  56, 109,
  56, 117,
  56, 118,
  56, 120,
  56, 121,
  56, 124,
  56, 127,
  56, 129,
  56, 130,
  56, 133,
  56, 136,
  56, 137,
  56, 140,
  56, 142,
  56, 144,
  56, 145,
  56, 147,
  56, 148,
  56, 150,
  56, 151,
  56, 153,
  56, 154,
  56, 158,
  56, 161,
  56, 162,
  56, 163,
  56, 164,
  56, 165,
  56, 166,
  56, 170,
  56, 171,
  56, 175,
  56, 176,
  56, 178,
  56, 181,
  56, 182,
  56, 185,
  56, 186,
  56, 188,
  56, 189,
  56, 190,
  56, 195,
  56, 196,
  56, 197,
  56, 201,
  56, 203,
  56, 204,
  56, 206,
  56, 213,
  56, 214,
  56, 215,
  56, 217,
  56, 219,
  56, 220,
  56, 223,
  56, 225,
  56, 227,
  56, 229,
  56, 232,
  56, 238,
  56, 239,
  56, 241,
  56, 242,
  56, 243,
  56, 244,
  56, 245,
  56, 251,
  56, 252,
  56, 253,
  56, 254,
  56, 256,
  56, 259,
  56, 266,
  56, 269,
  56, 272,
  56, 273,
  56, 276,
  56, 277,
  56, 278,
  56, 282,
  56, 283,
  56, 285,
  56, 286,
  56, 287,
  56, 289,
  56, 290,
  56, 296,
  56, 298,
  56, 300,
  56, 301,
  56, 302,
  56, 304,
  56, 306,
  56, 307,
  56, 310,
  56, 311,
  56, 312,
  56, 313,
  56, 316,
  56, 319,
  56, 321,
  56, 322,
  56, 324,
  56, 327,
  56, 329,
  56, 330,
  56, 338,
  56, 339,
  56, 341,
  56, 343,
  56, 345,
  56, 346,
  56, 347,
  56, 351,
  56, 352,
  56, 353,
  56, 356,
  56, 363,
  56, 365,
  56, 369,
  56, 372,
  56, 373,
  56, 374,
  56, 375,
  56, 378,
  56, 380,
  56, 385,
  56, 387,
  56, 389,
  56, 391,
  56, 393,
  56, 395,
  56, 398,
  56, 400,
  56, 401,
  56, 402,
  56, 409,
  56, 410,
  56, 412,
  56, 414,
  56, 417,
  56, 419,
  56, 420,
  56, 421,
  56, 423,
  56, 424,
  56, 425,
  56, 431,
  56, 432,
  56, 433,
  56, 435,
  56, 437,
  56, 441,
  56, 444,
  56, 445,
  56, 448,
  56, 450,
  56, 452,
  56, 453,
  56, 455,
  56, 456,
  56, 458,
  56, 461,
  56, 463,
  56, 464,
  56, 465,
  56, 466,
  56, 467,
  56, 468,
  56, 469,
  56, 472,
  56, 473,
  56, 477,
  56, 478,
  56, 481,
  56, 483,
  56, 484,
  56, 491,
  56, 492,
  56, 493,
  56, 494,
  56, 499,
  57, 60,
  57, 61,
  57, 62,
  57, 64,
  57, 65,
  57, 67,
  57, 68,
  57, 70,
  57, 71,
  57, 73,
  57, 74,
  57, 76,
  57, 78,
  57, 80,
  57, 81,
  57, 83,
  57, 84,
  57, 85,
  57, 87,
  57, 88,
  57, 89,
  57, 90,
  57, 91,
  57, 95,
  57, 96,
  57, 102,
  57, 104,
  57, 105,
  57, 107,
  57, 108,
  57, 109,
  57, 112,
  57, 114,
  57, 116,
  57, 121,
  57, 125,
  57, 130,
  57, 132,
  57, 134,
  57, 135,
  57, 137,
  57, 138,
  57, 143,
  57, 147,
  57, 152,
  57, 156,
  57, 157,
  57, 159,
  57, 160,
  57, 163,
  57, 166,
  57, 167,
  57, 169,
  57, 170,
  57, 172,
  57, 174,
  57, 175,
  57, 176,
  57, 177,
  57, 183,
  57, 184,
  57, 186,
  57, 187,
  57, 188,
  57, 191,
  57, 193,
  57, 197,
  57, 199,
  57, 201,
  57, 203,
  57, 206,
  57, 208,
  57, 209,
  57, 212,
  57, 214,
  57, 220,
  57, 221,
  57, 222,
  57, 225,
  57, 228,
  57, 229,
  57, 230,
  57, 233,
  57, 234,
  57, 235,
  57, 236,
  57, 237,
  57, 238,
  57, 240,
  57, 244,
  57, 245,
  57, 247,
  57, 250,
  57, 254,
  57, 259,
  57, 260,
  57, 264,
  57, 265,
  57, 267,
  57, 269,
  57, 272,
  57, 273,
  57, 276,
  57, 277,
  57, 278,
  57, 279,
  57, 280,
  57, 281,
  57, 282,
  57, 286,
  57, 288,
  57, 290,
  57, 291,
  57, 292,
  57, 294,
  57, 296,
  57, 297,
  57, 301,
  57, 303,
  57, 304,
  57, 305,
  57, 306,
  57, 307,
  57, 311,
  57, 313,
  57, 314,
  57, 315,
  57, 320,
  57, 321,
  57, 323,
  57, 325,
  57, 326,
  57, 328,
  57, 334,
  57, 335,
  57, 337,
  57, 338,
  57, 339,
  57, 341,
  57, 344,
  57, 345,
  57, 350,
  57, 351,
  57, 353,
  57, 356,
  57, 357,
  57, 358,
  57, 360,
  57, 365,
  57, 368,
  57, 371,
  57, 373,
  57, 374,
  57, 378,
  57, 379,
  57, 383,
  57, 386,
  57, 389,
  57, 390,
  57, 394,
  57, 396,
  57, 398,
  57, 400,
  57, 404,
  57, 409,
  57, 411,
  57, 412,
  57, 413,
  57, 419,
  57, 422,
  57, 425,
  57, 427,
  57, 428,
  57, 429,
  57, 432,
  57, 435,
  57, 437,
  57, 439,
  57, 442,
  57, 444,
  57, 446,
  57, 449,
  57, 450,
  57, 451,
  57, 452,
  57, 453,
  57, 455,
  57, 457,
  57, 459,
  57, 464,
  57, 465,
  57, 466,
  57, 467,
  57, 468,
  57, 469,
  57, 471,
  57, 472,
  57, 473,
  57, 474,
  57, 476,
  57, 477,
  57, 478,
  57, 481,
  57, 482,
  57, 484,
  57, 487,
  57, 488,
  57, 492,
  57, 493,
  57, 494,
  57, 498,
  57, 500,
  58, 59,
  58, 60,
  58, 61,
  58, 63,
  58, 66,
  58, 67,
  58, 68,
  58, 69,
  58, 71,
  58, 72,
  58, 73,
  58, 76,
  58, 78,
  58, 79,
  58, 80,
  58, 81,
  58, 83,
  58, 85,
  58, 87,
  58, 88,
  58, 90,
  58, 93,
  58, 99,
  58, 100,
  58, 102,
  58, 106,
  58, 107,
  58, 110,
  58, 111,
  58, 112,
  58, 113,
  58, 115,
  58, 118,
  58, 120,
  58, 122,
  58, 124,
  58, 125,
  58, 126,
  58, 127,
  58, 128,
  58, 130,
  58, 131,
  58, 134,
  58, 136,
  58, 138,
  58, 139,
  58, 140,
  58, 143,
  58, 144,
  58, 146,
  58, 147,
  58, 149,
  58, 153,
  58, 155,
  58, 157,
  58, 160,
  58, 161,
  58, 162,
  58, 163,
  58, 171,
  58, 172,
  58, 173,
  58, 174,
  58, 177,
  58, 180,
  58, 183,
  58, 184,
  58, 185,
  58, 186,
  58, 188,
  58, 191,
  58, 195,
  58, 197,
  58, 200,
  58, 201,
  58, 202,
  58, 203,
  58, 204,
  58, 207,
  58, 208,
  58, 209,
  58, 211,
  58, 212,
  58, 213,
  58, 214,
  58, 216,
  58, 217,
  58, 218,
  58, 219,
  58, 220,
  58, 221,
  58, 226,
  58, 228,
  58, 233,
  58, 237,
  58, 238,
  58, 239,
  58, 240,
  58, 241,
  58, 243,
  58, 245,
  58, 246,
  58, 250,
  58, 251,
  58, 252,
  58, 253,
  58, 254,
  58, 256,
  58, 257,
  58, 263,
  58, 264,
  58, 265,
  58, 267,
  58, 268,
  58, 269,
  58, 270,
  58, 273,
  58, 275,
  58, 277,
  58, 280,
  58, 284,
  58, 286,
  58, 289,
  58, 291,
  58, 296,
  58, 299,
  58, 302,
  58, 303,
  58, 305,
  58, 307,
  58, 310,
  58, 313,
  58, 314,
  58, 315,
  58, 316,
  58, 317,
  58, 318,
  58, 319,
  58, 322,
  58, 325,
  58, 326,
  58, 327,
  58, 329,
  58, 330,
  58, 331,
  58, 332,
  58, 337,
  58, 341,
  58, 344,
  58, 348,
  58, 349,
  58, 350,
  58, 351,
  58, 354,
  58, 356,
  58, 358,
  58, 359,
  58, 364,
  58, 366,
  58, 367,
  58, 368,
  58, 371,
  58, 372,
  58, 373,
  58, 374,
  58, 376,
  58, 377,
  58, 378,
  58, 383,
  58, 384,
  58, 387,
  58, 389,
  58, 390,
  58, 392,
  58, 395,
  58, 396,
  58, 397,
  58, 403,
  58, 405,
  58, 406,
  58, 407,
  58, 413,
  58, 414,
  58, 416,
  58, 421,
  58, 424,
  58, 425,
  58, 428,
  58, 430,
  58, 431,
  58, 433,
  58, 436,
  58, 438,
  58, 439,
  58, 441,
  58, 444,
  58, 445,
  58, 446,
  58, 447,
  58, 448,
  58, 449,
  58, 451,
  58, 452,
  58, 453,
  58, 455,
  58, 457,
  58, 458,
  58, 462,
  58, 463,
  58, 464,
  58, 465,
  58, 466,
  58, 467,
  58, 468,
  58, 473,
  58, 474,
  58, 475,
  58, 479,
  58, 485,
  58, 486,
  58, 488,
  58, 489,
  58, 491,
  58, 492,
  58, 493,
  58, 495,
  58, 496,
  58, 497,
  58, 498,
  59, 62,
  59, 64,
  59, 66,
  59, 68,
  59, 72,
  59, 75,
  59, 77,
  59, 78,
  59, 79,
  59, 81,
  59, 83,
  59, 84,
  59, 86,
  59, 88,
  59, 90,
  59, 91,
  59, 94,
  59, 95,
  59, 96,
  59, 97,
  59, 99,
  59, 102,
  59, 103,
  59, 105,
  59, 106,
  59, 108,
  59, 110,
  59, 112,
  59, 113,
  59, 116,
  59, 117,
  59, 118,
  59, 119,
  59, 120,
  59, 121,
  59, 122,
  59, 125,
  59, 126,
  59, 127,
  59, 128,
  59, 130,
  59, 131,
  59, 134,
  59, 135,
  59, 136,
  59, 138,
  59, 140,
  59, 142,
  59, 143,
  59, 144,
  59, 145,
  59, 149,
  59, 151,
  59, 152,
  59, 155,
  59, 158,
  59, 160,
  59, 161,
  59, 163,
  59, 164,
  59, 166,
  59, 169,
  59, 175,
  59, 177,
  59, 178,
  59, 179,
  59, 180,
  59, 181,
  59, 182,
  59, 184,
  59, 187,
  59, 189,
  59, 192,
  59, 193,
  59, 194,
  59, 197,
  59, 200,
  59, 201,
  59, 202,
  59, 203,
  59, 205,
  59, 206,
  59, 207,
  59, 208,
  59, 210,
  59, 211,
  59, 212,
  59, 213,
  59, 217,
  59, 218,
  59, 223,
  59, 224,
  59, 229,
  59, 233,
  59, 234,
  59, 235,
  59, 236,
  59, 237,
  59, 238,
  59, 243,
  59, 245,
  59, 246,
  59, 247,
  59, 249,
  59, 251,
  59, 252,
  59, 257,
  59, 258,
  59, 260,
  59, 264,
  59, 271,
  59, 272,
  59, 273,
  59, 274,
  59, 275,
  59, 279,
  59, 280,
  59, 282,
  59, 285,
  59, 289,
  59, 292,
  59, 299,
  59, 301,
  59, 304,
  59, 305,
  59, 307,
  59, 308,
  59, 310,
  59, 313,
  59, 317,
  59, 318,
  59, 321,
  59, 322,
  59, 323,
  59, 324,
  59, 326,
  59, 327,
  59, 330,
  59, 333,
  59, 334,
  59, 336,
  59, 337,
  59, 338,
  59, 339,
  59, 342,
  59, 344,
  59, 349,
  59, 350,
  59, 353,
  59, 354,
  59, 356,
  59, 357,
  59, 358,
  59, 359,
  59, 360,
  59, 361,
  59, 362,
  59, 363,
  59, 364,
  59, 367,
  59, 369,
  59, 370,
  59, 372,
  59, 378,
  59, 379,
  59, 385,
  59, 387,
  59, 391,
  59, 392,
  59, 396,
  59, 397,
  59, 398,
  59, 399,
  59, 401,
  59, 404,
  59, 408,
  59, 409,
  59, 411,
  59, 412,
  59, 414,
  59, 416,
  59, 418,
  59, 421,
  59, 422,
  59, 424,
  59, 426,
  59, 427,
  59, 428,
  59, 429,
  59, 433,
  59, 435,
  59, 437,
  59, 441,
  59, 443,
  59, 445,
  59, 446,
  59, 447,
  59, 449,
  59, 452,
  59, 453,
  59, 454,
  59, 455,
  59, 459,
  59, 460,
  59, 464,
  59, 466,
  59, 468,
  59, 469,
  59, 470,
  59, 471,
  59, 472,
  59, 476,
  59, 480,
  59, 481,
  59, 482,
  59, 483,
  59, 484,
  59, 485,
  59, 486,
  59, 490,
  59, 495,
  59, 499,
  60, 61,
  60, 63,
  60, 65,
  60, 67,
  60, 69,
  60, 73,
  60, 76,
  60, 78,
  60, 81,
  60, 83,
  60, 86,
  60, 87,
  60, 89,
  60, 90,
  60, 92,
  60, 93,
  60, 98,
  60, 100,
  60, 102,
  60, 105,
  60, 106,
  60, 109,
  60, 113,
  60, 116,
  60, 118,
  60, 120,
  60, 121,
  60, 122,
  60, 123,
  60, 127,
  60, 128,
  60, 131,
  60, 132,
  60, 136,
  60, 138,
  60, 139,
  60, 142,
  60, 143,
  60, 144,
  60, 145,
  60, 148,
  60, 152,
  60, 154,
  60, 155,
  60, 156,
  60, 157,
  60, 159,
  60, 164,
  60, 173,
  60, 174,
  60, 175,
  60, 178,
  60, 191,
  60, 192,
  60, 193,
  60, 196,
  60, 197,
  60, 198,
  60, 200,
  60, 201,
  60, 202,
  60, 203,
  60, 206,
  60, 208,
  60, 209,
  60, 210,
  60, 211,
  60, 215,
  60, 218,
  60, 220,
  60, 221,
  60, 222,
  60, 224,
  60, 225,
  60, 226,
  60, 228,
  60, 233,
  60, 235,
  60, 236,
  60, 238,
  60, 240,
  60, 243,
  60, 244,
  60, 245,
  60, 246,
  60, 248,
  60, 252,
  60, 259,
  60, 260,
  60, 262,
  60, 264,
  60, 265,
  60, 266,
  60, 268,
  60, 271,
  60, 272,
  60, 273,
  60, 274,
  60, 275,
  60, 278,
  60, 281,
  60, 282,
  60, 285,
  60, 287,
  60, 289,
  60, 292,
  60, 293,
  60, 294,
  60, 298,
  60, 301,
  60, 302,
  60, 303,
  60, 306,
  60, 308,
  60, 309,
  60, 310,
  60, 311,
  60, 312,
  60, 313,
  60, 314,
  60, 315,
  60, 316,
  60, 319,
  60, 321,
  60, 324,
  60, 325,
  60, 327,
  60, 329,
  60, 330,
  60, 334,
  60, 335,
  60, 337,
  60, 340,
  60, 342,
  60, 343,
  60, 344,
  60, 345,
  60, 346,
  60, 347,
  60, 349,
  60, 351,
  60, 352,
  60, 353,
  60, 354,
  60, 356,
  60, 357,
  60, 358,
  60, 359,
  60, 360,
  60, 363,
  60, 364,
  60, 365,
  60, 367,
  60, 369,
  60, 375,
  60, 379,
  60, 380,
  60, 381,
  60, 382,
  60, 389,
  60, 390,
  60, 391,
  60, 393,
  60, 394,
  60, 395,
  60, 397,
  60, 398,
  60, 399,
  60, 401,
  60, 402,
  60, 404,
  60, 405,
  60, 412,
  60, 415,
  60, 416,
  60, 417,
  60, 426,
  60, 428,
  60, 429,
  60, 430,
  60, 431,
  60, 435,
  60, 438,
  60, 440,
  60, 442,
  60, 443,
  60, 446,
  60, 448,
  60, 450,
  60, 451,
  60, 452,
  60, 453,
  60, 454,
  60, 455,
  60, 457,
  60, 458,
  60, 460,
  60, 461,
  60, 462,
  60, 469,
  60, 470,
  60, 471,
  60, 472,
  60, 476,
  60, 477,
  60, 479,
  60, 481,
  60, 484,
  60, 485,
  60, 487,
  60, 489,
  60, 490,
  60, 491,
  60, 492,
  60, 493,
  60, 494,
  60, 497,
  60, 498,
  60, 500,
  61, 62,
  61, 64,
  61, 65,
  61, 66,
  61, 69,
  61, 70,
  61, 71,
  61, 73,
  61, 75,
  61, 76,
  61, 78,
  61, 79,
  61, 81,
  61, 84,
  61, 85,
  61, 86,
  61, 88,
  61, 89,
  61, 90,
  61, 92,
  61, 95,
  61, 96,
  61, 97,
  61, 98,
  61, 99,
  61, 102,
  61, 105,
  61, 107,
  61, 108,
  61, 110,
  61, 112,
  61, 113,
  61, 117,
  61, 120,
  61, 121,
  61, 124,
  61, 131,
  61, 134,
  61, 136,
  61, 137,
  61, 142,
  61, 143,
  61, 145,
  61, 146,
  61, 149,
  61, 150,
  61, 153,
  61, 154,
  61, 155,
  61, 159,
  61, 160,
  61, 161,
  61, 162,
  61, 164,
  61, 168,
  61, 172,
  61, 174,
  61, 175,
  61, 176,
  61, 177,
  61, 178,
  61, 179,
  61, 180,
  61, 182,
  61, 186,
  61, 189,
  61, 190,
  61, 191,
  61, 192,
  61, 195,
  61, 196,
  61, 197,
  61, 199,
  61, 201,
  61, 202,
  61, 203,
  61, 206,
  61, 208,
  61, 210,
  61, 212,
  61, 213,
  61, 215,
  61, 216,
  61, 218,
  61, 219,
  61, 220,
  61, 222,
  61, 223,
  61, 224,
  61, 225,
  61, 226,
  61, 227,
  61, 229,
  61, 237,
  61, 238,
  61, 241,
  61, 244,
  61, 245,
  61, 248,
  61, 251,
  61, 254,
  61, 255,
  61, 257,
  61, 260,
  61, 261,
  61, 263,
  61, 264,
  61, 266,
  61, 267,
  61, 270,
  61, 273,
  61, 276,
  61, 277,
  61, 278,
  61, 281,
  61, 282,
  61, 284,
  61, 287,
  61, 288,
  61, 289,
  61, 291,
  61, 293,
  61, 294,
  61, 295,
  61, 297,
  61, 298,
  61, 299,
  61, 300,
  61, 301,
  61, 302,
  61, 304,
  61, 305,
  61, 306,
  61, 307,
  61, 308,
  61, 309,
  61, 310,
  61, 311,
  61, 312,
  61, 316,
  61, 317,
  61, 320,
  61, 321,
  61, 322,
  61, 325,
  61, 327,
  61, 329,
  61, 332,
  61, 333,
  61, 334,
  61, 335,
  61, 340,
  61, 342,
  61, 343,
  61, 346,
  61, 349,
  61, 350,
  61, 352,
  61, 353,
  61, 356,
  61, 359,
  61, 363,
  61, 364,
  61, 365,
  61, 367,
  61, 370,
  61, 372,
  61, 375,
  61, 377,
  61, 378,
  61, 381,
  61, 382,
  61, 383,
  61, 384,
  61, 386,
  61, 388,
  61, 395,
  61, 396,
  61, 397,
  61, 398,
  61, 399,
  61, 400,
  61, 401,
  61, 403,
  61, 406,
  61, 407,
  61, 410,
  61, 411,
  61, 413,
  61, 415,
  61, 416,
  61, 417,
  61, 419,
  61, 420,
  61, 423,
  61, 425,
  61, 428,
  61, 429,
  61, 430,
  61, 431,
  61, 435,
  61, 436,
  61, 437,
  61, 438,
  61, 441,
  61, 442,
  61, 443,
  61, 444,
  61, 446,
  61, 447,
  61, 449,
  61, 451,
  61, 452,
  61, 453,
  61, 458,
  61, 460,
  61, 463,
  61, 464,
  61, 468,
  61, 469,
  61, 471,
  61, 472,
  61, 477,
  61, 479,
  61, 480,
  61, 483,
  61, 486,
  61, 487,
  61, 488,
  61, 489,
  61, 491,
  61, 493,
  61, 494,
  61, 497,
  61, 498,
  61, 499,
  61, 500,
  62, 63,
  62, 66,
  62, 68,
  62, 69,
  62, 73,
  62, 79,
  62, 81,
  62, 83,
  62, 87,
  62, 90,
  62, 94,
  62, 95,
  62, 97,
  62, 98,
  62, 99,
  62, 100,
  62, 101,
  62, 106,
  62, 107,
  62, 109,
  62, 116,
  62, 122,
  62, 124,
  62, 127,
  62, 128,
  62, 131,
  62, 133,
  62, 134,
  62, 135,
  62, 136,
  62, 139,
  62, 141,
  62, 145,
  62, 147,
  62, 148,
  62, 152,
  62, 154,
  62, 155,
  62, 156,
  62, 157,
  62, 159,
  62, 160,
  62, 161,
  62, 162,
  62, 164,
  62, 165,
  62, 167,
  62, 169,
  62, 172,
  62, 174,
  62, 175,
  62, 176,
  62, 179,
  62, 183,
  62, 184,
  62, 185,
  62, 191,
  62, 192,
  62, 193,
  62, 198,
  62, 201,
  62, 205,
  62, 209,
  62, 210,
  62, 212,
  62, 213,
  62, 215,
  62, 217,
  62, 222,
  62, 225,
  62, 227,
  62, 228,
  62, 229,
  62, 234,
  62, 235,
  62, 236,
  62, 238,
  62, 241,
  62, 242,
  62, 243,
  62, 245,
  62, 247,
  62, 248,
  62, 250,
  62, 252,
  62, 257,
  62, 258,
  62, 261,
  62, 263,
  62, 268,
  62, 269,
  62, 270,
  62, 276,
  62, 277,
  62, 278,
  62, 279,
  62, 280,
  62, 282,
  62, 285,
  62, 286,
  62, 287,
  62, 291,
  62, 292,
  62, 294,
  62, 295,
  62, 297,
  62, 298,
  62, 299,
  62, 301,
  62, 303,
  62, 304,
  62, 305,
  62, 306,
  62, 307,
  62, 308,
  62, 309,
  62, 310,
  62, 315,
  62, 319,
  62, 320,
  62, 321,
  62, 324,
  62, 328,
  62, 329,
  62, 330,
  62, 334,
  62, 335,
  62, 336,
  62, 337,
  62, 339,
  62, 340,
  62, 341,
  62, 343,
  62, 344,
  62, 345,
  62, 346,
  62, 347,
  62, 350,
  62, 353,
  62, 354,
  62, 355,
  62, 356,
  62, 357,
  62, 358,
  62, 359,
  62, 361,
  62, 362,
  62, 364,
  62, 367,
  62, 368,
  62, 370,
  62, 376,
  62, 378,
  62, 380,
  62, 381,
  62, 382,
  62, 386,
  62, 387,
  62, 391,
  62, 394,
  62, 395,
  62, 396,
  62, 397,
  62, 398,
  62, 400,
  62, 402,
  62, 405,
  62, 406,
  62, 408,
  62, 412,
  62, 415,
  62, 416,
  62, 421,
  62, 423,
  62, 425,
  62, 426,
  62, 429,
  62, 430,
  62, 432,
  62, 433,
  62, 434,
  62, 435,
  62, 441,
  62, 442,
  62, 444,
  62, 446,
  62, 447,
  62, 452,
  62, 453,
  62, 454,
  62, 455,
  62, 458,
  62, 461,
  62, 465,
  62, 466,
  62, 467,
  62, 469,
  62, 471,
  62, 472,
  62, 473,
  62, 475,
  62, 476,
  62, 477,
  62, 478,
  62, 479,
  62, 480,
  62, 483,
  62, 484,
  62, 485,
  62, 488,
  62, 491,
  62, 493,
  62, 494,
  62, 495,
  62, 499,
  62, 500,
  63, 67,
  63, 69,
  63, 72,
  63, 73,
  63, 74,
  63, 75,
  63, 76,
  63, 80,
  63, 81,
  63, 83,
  63, 85,
  63, 87,
  63, 89,
  63, 90,
  63, 91,
  63, 92,
  63, 93,
  63, 97,
  63, 98,
  63, 102,
  63, 103,
  63, 104,
  63, 105,
  63, 106,
  63, 108,
  63, 109,
  63, 111,
  63, 113,
  63, 114,
  63, 115,
  63, 116,
  63, 117,
  63, 118,
  63, 120,
  63, 121,
  63, 124,
  63, 126,
  63, 129,
  63, 130,
  63, 133,
  63, 134,
  63, 138,
  63, 139,
  63, 141,
  63, 143,
  63, 144,
  63, 145,
  63, 146,
  63, 149,
  63, 150,
  63, 151,
  63, 152,
  63, 155,
  63, 157,
  63, 158,
  63, 161,
  63, 163,
  63, 165,
  63, 166,
  63, 169,
  63, 170,
  63, 173,
  63, 174,
  63, 175,
  63, 176,
  63, 180,
  63, 185,
  63, 186,
  63, 190,
  63, 194,
  63, 195,
  63, 201,
  63, 204,
  63, 205,
  63, 206,
  63, 209,
  63, 210,
  63, 211,
  63, 212,
  63, 213,
  63, 215,
  63, 216,
  63, 219,
  63, 220,
  63, 221,
  63, 224,
  63, 226,
  63, 227,
  63, 229,
  63, 230,
  63, 238,
  63, 240,
  63, 241,
  63, 243,
  63, 244,
  63, 245,
  63, 246,
  63, 249,
  63, 253,
  63, 255,
  63, 256,
  63, 257,
  63, 260,
  63, 261,
  63, 262,
  63, 266,
  63, 267,
  63, 270,
  63, 271,
  63, 273,
  63, 275,
  63, 278,
  63, 281,
  63, 284,
  63, 285,
  63, 286,
  63, 288,
  63, 291,
  63, 292,
  63, 293,
  63, 295,
  63, 297,
  63, 298,
  63, 302,
  63, 303,
  63, 304,
  63, 306,
  63, 307,
  63, 308,
  63, 309,
  63, 310,
  63, 312,
  63, 313,
  63, 314,
  63, 317,
  63, 320,
  63, 321,
  63, 323,
  63, 324,
  63, 326,
  63, 328,
  63, 330,
  63, 331,
  63, 332,
  63, 336,
  63, 339,
  63, 340,
  63, 341,
  63, 342,
  63, 344,
  63, 348,
  63, 351,
  63, 352,
  63, 353,
  63, 356,
  63, 357,
  63, 359,
  63, 361,
  63, 363,
  63, 364,
  63, 365,
  63, 368,
  63, 370,
  63, 371,
  63, 373,
  63, 374,
  63, 375,
  63, 378,
  63, 380,
  63, 381,
  63, 384,
  63, 385,
  63, 386,
  63, 387,
  63, 388,
  63, 389,
  63, 392,
  63, 394,
  63, 396,
  63, 397,
  63, 401,
  63, 402,
  63, 403,
  63, 404,
  63, 405,
  63, 406,
  63, 407,
  63, 409,
  63, 411,
  63, 416,
  63, 418,
  63, 419,
  63, 420,
  63, 422,
  63, 423,
  63, 424,
  63, 425,
  63, 426,
  63, 428,
  63, 429,
  63, 431,
  63, 433,
  63, 437,
  63, 439,
  63, 442,
  63, 444,
  63, 445,
  63, 448,
  63, 449,
  63, 450,
  63, 452,
  63, 453,
  63, 455,
  63, 457,
  63, 459,
  63, 460,
  63, 462,
  63, 463,
  63, 464,
  63, 465,
  63, 467,
  63, 469,
  63, 471,
  63, 472,
  63, 474,
  63, 479,
  63, 481,
  63, 485,
  63, 486,
  63, 487,
  63, 488,
  63, 489,
  63, 491,
  63, 492,
  63, 494,
  63, 495,
  63, 499,
  63, 500,
  64, 66,
  64, 67,
  64, 72,
  64, 73,
  64, 77,
  64, 84,
  64, 85,
  64, 86,
  64, 87,
  64, 90,
  64, 92,
  64, 93,
  64, 95,
  64, 96,
  64, 97,
  64, 103,
  64, 104,
  64, 106,
  64, 107,
  64, 108,
  64, 113,
  64, 115,
  64, 118,
  64, 119,
  64, 120,
  64, 123,
  64, 126,
  64, 127,
  64, 129,
  64, 130,
  64, 132,
  64, 133,
  64, 134,
  64, 135,
  64, 140,
  64, 141,
  64, 142,
  64, 143,
  64, 146,
  64, 147,
  64, 150,
  64, 151,
  64, 153,
  64, 156,
  64, 157,
  64, 158,
  64, 159,
  64, 160,
  64, 162,
  64, 168,
  64, 170,
  64, 173,
  64, 175,
  64, 176,
  64, 178,
  64, 179,
  64, 180,
  64, 181,
  64, 182,
  64, 184,
  64, 185,
  64, 186,
  64, 187,
  64, 188,
  64, 189,
  64, 196,
  64, 198,
  64, 204,
  64, 206,
  64, 208,
  64, 209,
  64, 211,
  64, 212,
  64, 213,
  64, 215,
  64, 216,
  64, 221,
  64, 224,
  64, 225,
  64, 226,
  64, 227,
  64, 228,
  64, 229,
  64, 232,
  64, 233,
  64, 234,
  64, 235,
  64, 236,
  64, 239,
  64, 240,
  64, 241,
  64, 243,
  64, 245,
  64, 246,
  64, 248,
  64, 250,
  64, 252,
  64, 253,
  64, 254,
  64, 256,
  64, 259,
  64, 260,
  64, 261,
  64, 264,
  64, 268,
  64, 269,
  64, 271,
  64, 273,
  64, 274,
  64, 275,
  64, 278,
  64, 279,
  64, 280,
  64, 281,
  64, 283,
  64, 286,
  64, 288,
  64, 289,
  64, 290,
  64, 291,
  64, 293,
  64, 294,
  64, 295,
  64, 297,
  64, 300,
  64, 301,
  64, 302,
  64, 303,
  64, 305,
  64, 306,
  64, 312,
  64, 314,
  64, 315,
  64, 321,
  64, 326,
  64, 330,
  64, 331,
  64, 333,
  64, 336,
  64, 337,
  64, 339,
  64, 344,
  64, 346,
  64, 348,
  64, 351,
  64, 352,
  64, 356,
  64, 357,
  64, 358,
  64, 362,
  64, 363,
  64, 364,
  64, 366,
  64, 369,
  64, 370,
  64, 373,
  64, 374,
  64, 375,
  64, 376,
  64, 378,
  64, 379,
  64, 381,
  64, 382,
  64, 385,
  64, 388,
  64, 390,
  64, 391,
  64, 393,
  64, 394,
  64, 397,
  64, 398,
  64, 400,
  64, 402,
  64, 403,
  64, 405,
  64, 406,
  64, 410,
  64, 411,
  64, 414,
  64, 415,
  64, 416,
  64, 421,
  64, 424,
  64, 427,
  64, 428,
  64, 443,
  64, 446,
  64, 447,
  64, 448,
  64, 449,
  64, 450,
  64, 451,
  64, 452,
  64, 457,
  64, 459,
  64, 462,
  64, 464,
  64, 466,
  64, 467,
  64, 470,
  64, 472,
  64, 474,
  64, 476,
  64, 480,
  64, 481,
  64, 482,
  64, 483,
  64, 485,
  64, 489,
  64, 493,
  64, 496,
  64, 498,
  64, 499,
  64, 500,
  65, 66,
  65, 69,
  65, 70,
  65, 71,
  65, 72,
  65, 73,
  65, 74,
  65, 75,
  65, 79,
  65, 80,
  65, 82,
  65, 86,
  65, 87,
  65, 88,
  65, 90,
  65, 91,
  65, 93,
  65, 94,
  65, 95,
  65, 98,
  65, 101,
  65, 104,
  65, 107,
  65, 109,
  65, 110,
  65, 112,
  65, 114,
  65, 115,
  65, 119,
  65, 120,
  65, 122,
  65, 124,
  65, 131,
  65, 132,
  65, 134,
  65, 137,
  65, 141,
  65, 144,
  65, 145,
  65, 147,
  65, 149,
  65, 150,
  65, 151,
  65, 153,
  65, 154,
  65, 156,
  65, 157,
  65, 158,
  65, 159,
  65, 160,
  65, 161,
  65, 165,
  65, 166,
  65, 167,
  65, 169,
  65, 176,
  65, 177,
  65, 178,
  65, 179,
  65, 180,
  65, 185,
  65, 186,
  65, 187,
  65, 189,
  65, 191,
  65, 192,
  65, 196,
  65, 198,
  65, 200,
  65, 203,
  65, 204,
  65, 206,
  65, 214,
  65, 217,
  65, 218,
  65, 219,
  65, 220,
  65, 221,
  65, 224,
  65, 227,
  65, 230,
  65, 231,
  65, 232,
  65, 236,
  65, 237,
  65, 238,
  65, 243,
  65, 246,
  65, 251,
  65, 254,
  65, 255,
  65, 256,
  65, 257,
  65, 262,
  65, 266,
  65, 267,
  65, 268,
  65, 269,
  65, 270,
  65, 271,
  65, 273,
  65, 274,
  65, 277,
  65, 279,
  65, 280,
  65, 281,
  65, 282,
  65, 283,
  65, 284,
  65, 285,
  65, 288,
  65, 289,
  65, 291,
  65, 293,
  65, 294,
  65, 298,
  65, 301,
  65, 302,
  65, 303,
  65, 306,
  65, 308,
  65, 309,
  65, 313,
  65, 321,
  65, 322,
  65, 323,
  65, 324,
  65, 326,
  65, 327,
  65, 328,
  65, 330,
  65, 331,
  65, 332,
  65, 334,
  65, 335,
  65, 337,
  65, 339,
  65, 340,
  65, 345,
  65, 346,
  65, 348,
  65, 349,
  65, 350,
  65, 353,
  65, 354,
  65, 358,
  65, 361,
  65, 362,
  65, 364,
  65, 367,
  65, 371,
  65, 372,
  65, 373,
  65, 379,
  65, 382,
  65, 384,
  65, 385,
  65, 389,
  65, 390,
  65, 395,
  65, 397,
  65, 399,
  65, 400,
  65, 403,
  65, 405,
  65, 406,
  65, 410,
  65, 412,
  65, 415,
  65, 416,
  65, 417,
  65, 421,
  65, 422,
  65, 423,
  65, 424,
  65, 425,
  65, 429,
  65, 432,
  65, 434,
  65, 435,
  65, 437,
  65, 438,
  65, 439,
  65, 441,
  65, 443,
  65, 445,
  65, 446,
  65, 448,
  65, 450,
  65, 451,
  65, 452,
  65, 454,
  65, 455,
  65, 456,
  65, 458,
  65, 459,
  65, 460,
  65, 461,
  65, 462,
  65, 464,
  65, 465,
  65, 467,
  65, 468,
  65, 473,
  65, 475,
  65, 476,
  65, 478,
  65, 479,
  65, 483,
  65, 484,
  65, 485,
  65, 486,
  65, 492,
  65, 493,
  65, 497,
  65, 499,
  65, 500,
  66, 67,
  66, 69,
  66, 70,
  66, 71,
  66, 73,
  66, 75,
  66, 76,
  66, 77,
  66, 80,
  66, 82,
  66, 85,
  66, 87,
  66, 88,
  66, 91,
  66, 94,
  66, 97,
  66, 98,
  66, 99,
  66, 103,
  66, 110,
  66, 111,
  66, 114,
  66, 116,
  66, 122,
  66, 123,
  66, 124,
  66, 125,
  66, 126,
  66, 127,
  66, 134,
  66, 135,
  66, 136,
  66, 139,
  66, 141,
  66, 144,
  66, 147,
  66, 149,
  66, 150,
  66, 151,
  66, 152,
  66, 155,
  66, 157,
  66, 158,
  66, 159,
  66, 161,
  66, 162,
  66, 163,
  66, 164,
  66, 165,
  66, 166,
  66, 168,
  66, 169,
  66, 172,
  66, 173,
  66, 174,
  66, 176,
  66, 178,
  66, 183,
  66, 185,
  66, 186,
  66, 188,
  66, 189,
  66, 191,
  66, 193,
  66, 195,
  66, 198,
  66, 200,
  66, 204,
  66, 206,
  66, 207,
  66, 209,
  66, 212,
  66, 215,
  66, 222,
  66, 229,
  66, 235,
  66, 236,
  66, 238,
  66, 239,
  66, 243,
  66, 245,
  66, 246,
  66, 249,
  66, 250,
  66, 258,
  66, 262,
  66, 263,
  66, 264,
  66, 265,
  66, 267,
  66, 271,
  66, 273,
  66, 275,
  66, 280,
  66, 283,
  66, 285,
  66, 287,
  66, 288,
  66, 289,
  66, 290,
  66, 291,
  66, 292,
  66, 298,
  66, 301,
  66, 303,
  66, 304,
  66, 308,
  66, 309,
  66, 310,
  66, 312,
  66, 314,
  66, 315,
  66, 316,
  66, 317,
  66, 318,
  66, 319,
  66, 320,
  66, 322,
  66, 324,
  66, 326,
  66, 327,
  66, 328,
  66, 329,
  66, 333,
  66, 334,
  66, 340,
  66, 341,
  66, 342,
  66, 343,
  66, 346,
  66, 347,
  66, 351,
  66, 352,
  66, 353,
  66, 355,
  66, 356,
  66, 359,
  66, 360,
  66, 361,
  66, 362,
  66, 364,
  66, 368,
  66, 371,
  66, 373,
  66, 375,
  66, 376,
  66, 377,
  66, 379,
  66, 382,
  66, 383,
  66, 384,
  66, 387,
  66, 389,
  66, 391,
  66, 393,
  66, 397,
  66, 398,
  66, 404,
  66, 406,
  66, 407,
  66, 410,
  66, 415,
  66, 416,
  66, 418,
  66, 420,
  66, 422,
  66, 423,
  66, 432,
  66, 434,
  66, 435,
  66, 437,
  66, 438,
  66, 439,
  66, 440,
  66, 441,
  66, 442,
  66, 443,
  66, 444,
  66, 451,
  66, 453,
  66, 454,
  66, 455,
  66, 460,
  66, 462,
  66, 466,
  66, 467,
  66, 472,
  66, 475,
  66, 476,
  66, 478,
  66, 480,
  66, 482,
  66, 483,
  66, 484,
  66, 488,
  66, 490,
  66, 491,
  66, 492,
  66, 493,
  66, 494,
  66, 496,
  66, 497,
  67, 68,
  67, 69,
  67, 73,
  67, 74,
  67, 78,
  67, 80,
  67, 83,
  67, 85,
  67, 88,
  67, 90,
  67, 92,
  67, 95,
  67, 97,
  67, 102,
  67, 104,
  67, 106,
  67, 109,
  67, 110,
  67, 111,
  67, 112,
  67, 116,
  67, 117,
  67, 119,
  67, 120,
  67, 121,
  67, 122,
  67, 124,
  67, 126,
  67, 127,
  67, 129,
  67, 130,
  67, 131,
  67, 132,
  67, 133,
  67, 134,
  67, 142,
  67, 143,
  67, 145,
  67, 146,
  67, 148,
  67, 149,
  67, 150,
  67, 151,
  67, 153,
  67, 157,
  67, 158,
  67, 164,
  67, 165,
  67, 166,
  67, 169,
  67, 171,
  67, 172,
  67, 173,
  67, 174,
  67, 177,
  67, 178,
  67, 179,
  67, 180,
  67, 182,
  67, 183,
  67, 184,
  67, 185,
  67, 188,
  67, 194,
  67, 196,
  67, 198,
  67, 199,
  67, 201,
  67, 202,
  67, 204,
  67, 205,
  67, 206,
  67, 207,
  67, 208,
  67, 211,
  67, 214,
  67, 215,
  67, 217,
  67, 218,
  67, 219,
  67, 224,
  67, 225,
  67, 226,
  67, 232,
  67, 236,
  67, 237,
  67, 239,
  67, 245,
  67, 246,
  67, 249,
  67, 250,
  67, 251,
  67, 252,
  67, 255,
  67, 257,
  67, 258,
  67, 259,
  67, 261,
  67, 262,
  67, 265,
  67, 269,
  67, 272,
  67, 275,
  67, 276,
  67, 278,
  67, 281,
  67, 283,
  67, 284,
  67, 285,
  67, 286,
  67, 287,
  67, 288,
  67, 291,
  67, 295,
  67, 296,
  67, 297,
  67, 299,
  67, 300,
  67, 302,
  67, 303,
  67, 304,
  67, 305,
  67, 306,
  67, 307,
  67, 310,
  67, 312,
  67, 313,
  67, 314,
  67, 316,
  67, 317,
  67, 322,
  67, 325,
  67, 326,
  67, 328,
  67, 331,
  67, 333,
  67, 335,
  67, 336,
  67, 338,
  67, 339,
  67, 340,
  67, 344,
  67, 345,
  67, 346,
  67, 348,
  67, 349,
  67, 359,
  67, 360,
  67, 362,
  67, 364,
  67, 365,
  67, 366,
  67, 370,
  67, 373,
  67, 375,
  67, 376,
  67, 377,
  67, 381,
  67, 383,
  67, 384,
  67, 388,
  67, 392,
  67, 394,
  67, 395,
  67, 396,
  67, 397,
  67, 399,
  67, 401,
  67, 405,
  67, 407,
  67, 410,
  67, 412,
  67, 413,
  67, 416,
  67, 419,
  67, 420,
  67, 422,
  67, 425,
  67, 427,
  67, 428,
  67, 430,
  67, 431,
  67, 432,
  67, 434,
  67, 435,
  67, 436,
  67, 437,
  67, 439,
  67, 440,
  67, 444,
  67, 447,
  67, 448,
  67, 451,
  67, 454,
  67, 457,
  67, 465,
  67, 466,
  67, 470,
  67, 471,
  67, 472,
  67, 474,
  67, 475,
  67, 476,
  67, 477,
  67, 481,
  67, 482,
  67, 489,
  67, 490,
  67, 492,
  67, 494,
  67, 496,
  67, 499,
  67, 500,
  68, 69,
  68, 70,
  68, 71,
  68, 73,
  68, 74,
  68, 76,
  68, 77,
  68, 80,
  68, 83,
  68, 84,
  68, 87,
  68, 89,
  68, 93,
  68, 97,
  68, 99,
  68, 101,
  68, 104,
  68, 105,
  68, 106,
  68, 108,
  68, 111,
  68, 115,
  68, 118,
  68, 121,
  68, 123,
  68, 124,
  68, 125,
  68, 126,
  68, 128,
  68, 129,
  68, 133,
  68, 135,
  68, 137,
  68, 142,
  68, 143,
  68, 148,
  68, 149,
  68, 150,
  68, 152,
  68, 155,
  68, 156,
  68, 161,
  68, 168,
  68, 170,
  68, 172,
  68, 174,
  68, 175,
  68, 176,
  68, 179,
  68, 181,
  68, 182,
  68, 183,
  68, 184,
  68, 188,
  68, 189,
  68, 191,
  68, 192,
  68, 193,
  68, 195,
  68, 197,
  68, 201,
  68, 203,
  68, 206,
  68, 207,
  68, 209,
  68, 210,
  68, 211,
  68, 212,
  68, 213,
  68, 214,
  68, 216,
  68, 217,
  68, 218,
  68, 221,
  68, 222,
  68, 223,
  68, 225,
  68, 226,
  68, 229,
  68, 230,
  68, 231,
  68, 232,
  68, 233,
  68, 234,
  68, 237,
  68, 240,
  68, 244,
  68, 245,
  68, 248,
  68, 249,
  68, 250,
  68, 253,
  68, 255,
  68, 259,
  68, 262,
  68, 264,
  68, 268,
  68, 269,
  68, 271,
  68, 272,
  68, 276,
  68, 277,
  68, 283,
  68, 284,
  68, 285,
  68, 288,
  68, 291,
  68, 292,
  68, 293,
  68, 295,
  68, 297,
  68, 298,
  68, 299,
  68, 302,
  68, 307,
  68, 308,
  68, 309,
  68, 310,
  68, 311,
  68, 312,
  68, 313,
  68, 315,
  68, 316,
  68, 317,
  68, 318,
  68, 319,
  68, 320,
  68, 321,
  68, 322,
  68, 323,
  68, 324,
  68, 325,
  68, 328,
  68, 329,
  68, 330,
  68, 332,
  68, 333,
  68, 334,
  68, 337,
  68, 338,
  68, 341,
  68, 344,
  68, 345,
  68, 346,
  68, 348,
  68, 351,
  68, 352,
  68, 356,
  68, 357,
  68, 361,
  68, 362,
  68, 364,
  68, 365,
  68, 368,
  68, 369,
  68, 371,
  68, 373,
  68, 376,
  68, 381,
  68, 383,
  68, 384,
  68, 386,
  68, 387,
  68, 389,
  68, 390,
  68, 392,
  68, 393,
  68, 394,
  68, 396,
  68, 398,
  68, 399,
  68, 404,
  68, 405,
  68, 406,
  68, 407,
  68, 410,
  68, 411,
  68, 413,
  68, 419,
  68, 422,
  68, 427,
  68, 429,
  68, 430,
  68, 431,
  68, 434,
  68, 436,
  68, 438,
  68, 439,
  68, 442,
  68, 443,
  68, 444,
  68, 447,
  68, 448,
  68, 449,
  68, 453,
  68, 454,
  68, 458,
  68, 459,
  68, 460,
  68, 461,
  68, 462,
  68, 464,
  68, 469,
  68, 475,
  68, 476,
  68, 478,
  68, 480,
  68, 481,
  68, 482,
  68, 484,
  68, 487,
  68, 488,
  68, 490,
  68, 493,
  68, 495,
  68, 496,
  68, 497,
  68, 498,
  69, 74,
  69, 75,
  69, 76,
  69, 77,
  69, 78,
  69, 82,
  69, 86,
  69, 87,
  69, 91,
  69, 93,
  69, 94,
  69, 96,
  69, 98,
  69, 103,
  69, 104,
  69, 106,
  69, 108,
  69, 109,
  69, 110,
  69, 111,
  69, 112,
  69, 113,
  69, 114,
  69, 115,
  69, 116,
  69, 117,
  69, 118,
  69, 122,
  69, 124,
  69, 127,
  69, 128,
  69, 133,
  69, 136,
  69, 137,
  69, 140,
  69, 141,
  69, 144,
  69, 145,
  69, 146,
  69, 148,
  69, 149,
  69, 151,
  69, 152,
  69, 154,
  69, 157,
  69, 158,
  69, 160,
  69, 166,
  69, 171,
  69, 173,
  69, 176,
  69, 180,
  69, 182,
  69, 184,
  69, 185,
  69, 186,
  69, 188,
  69, 192,
  69, 193,
  69, 194,
  69, 196,
  69, 200,
  69, 201,
  69, 202,
  69, 205,
  69, 210,
  69, 212,
  69, 214,
  69, 216,
  69, 217,
  69, 218,
  69, 219,
  69, 221,
  69, 222,
  69, 223,
  69, 224,
  69, 225,
  69, 227,
  69, 229,
  69, 230,
  69, 231,
  69, 234,
  69, 235,
  69, 237,
  69, 240,
  69, 241,
  69, 243,
  69, 247,
  69, 248,
  69, 250,
  69, 251,
  69, 252,
  69, 253,
  69, 256,
  69, 257,
  69, 258,
  69, 260,
  69, 263,
  69, 264,
  69, 266,
  69, 267,
  69, 268,
  69, 270,
  69, 271,
  69, 273,
  69, 274,
  69, 278,
  69, 280,
  69, 283,
  69, 284,
  69, 285,
  69, 291,
  69, 292,
  69, 296,
  69, 297,
  69, 300,
  69, 301,
  69, 302,
  69, 306,
  69, 311,
  69, 312,
  69, 313,
  69, 314,
  69, 315,
  69, 316,
  69, 318,
  69, 320,
  69, 328,
  69, 330,
  69, 332,
  69, 333,
  69, 335,
  69, 337,
  69, 339,
  69, 340,
  69, 341,
  69, 342,
  69, 346,
  69, 347,
  69, 351,
  69, 352,
  69, 358,
  69, 359,
  69, 360,
  69, 361,
  69, 362,
  69, 365,
  69, 366,
  69, 368,
  69, 370,
  69, 371,
  69, 372,
  69, 373,
  69, 374,
  69, 375,
  69, 382,
  69, 383,
  69, 385,
  69, 386,
  69, 387,
  69, 389,
  69, 390,
  69, 391,
  69, 397,
  69, 398,
  69, 399,
  69, 400,
  69, 401,
  69, 403,
  69, 405,
  69, 406,
  69, 407,
  69, 408,
  69, 410,
  69, 411,
  69, 412,
  69, 414,
  69, 415,
  69, 416,
  69, 417,
  69, 418,
  69, 422,
  69, 429,
  69, 432,
  69, 433,
  69, 434,
  69, 435,
  69, 437,
  69, 440,
  69, 442,
  69, 443,
  69, 447,
  69, 449,
  69, 450,
  69, 452,
  69, 453,
  69, 455,
  69, 456,
  69, 457,
  69, 458,
  69, 459,
  69, 460,
  69, 463,
  69, 464,
  69, 465,
  69, 466,
  69, 467,
  69, 468,
  69, 469,
  69, 471,
  69, 472,
  69, 473,
  69, 477,
  69, 479,
  69, 480,
  69, 483,
  69, 484,
  69, 485,
  69, 486,
  69, 487,
  69, 489,
  69, 490,
  69, 491,
  69, 493,
  69, 494,
  69, 495,
  69, 498,
  69, 499,
  70, 71,
  70, 74,
  70, 75,
  70, 76,
  70, 78,
  70, 81,
  70, 82,
  70, 83,
  70, 88,
  70, 91,
  70, 92,
  70, 93,
  70, 94,
  70, 95,
  70, 96,
  70, 101,
  70, 102,
  70, 103,
  70, 104,
  70, 105,
  70, 106,
  70, 107,
  70, 109,
  70, 110,
  70, 113,
  70, 114,
  70, 115,
  70, 122,
  70, 123,
  70, 124,
  70, 126,
  70, 128,
  70, 130,
  70, 133,
  70, 134,
  70, 137,
  70, 139,
  70, 141,
  70, 147,
  70, 149,
  70, 150,
  70, 151,
  70, 153,
  70, 154,
  70, 156,
  70, 160,
  70, 162,
  70, 163,
  70, 167,
  70, 168,
  70, 169,
  70, 173,
  70, 177,
  70, 179,
  70, 180,
  70, 182,
  70, 185,
  70, 186,
  70, 187,
  70, 188,
  70, 190,
  70, 194,
  70, 195,
  70, 196,
  70, 198,
  70, 199,
  70, 202,
  70, 205,
  70, 206,
  70, 207,
  70, 208,
  70, 210,
  70, 211,
  70, 212,
  70, 215,
  70, 216,
  70, 217,
  70, 223,
  70, 224,
  70, 226,
  70, 227,
  70, 228,
  70, 229,
  70, 230,
  70, 234,
  70, 235,
  70, 236,
  70, 237,
  70, 240,
  70, 243,
  70, 247,
  70, 248,
  70, 251,
  70, 252,
  70, 253,
  70, 254,
  70, 255,
  70, 257,
  70, 261,
  70, 265,
  70, 268,
  70, 269,
  70, 272,
  70, 274,
  70, 275,
  70, 276,
  70, 277,
  70, 278,
  70, 279,
  70, 281,
  70, 283,
  70, 284,
  70, 285,
  70, 286,
  70, 288,
  70, 289,
  70, 290,
  70, 291,
  70, 292,
  70, 293,
  70, 296,
  70, 297,
  70, 300,
  70, 301,
  70, 305,
  70, 307,
  70, 310,
  70, 312,
  70, 319,
  70, 321,
  70, 323,
  70, 324,
  70, 327,
  70, 328,
  70, 336,
  70, 337,
  70, 341,
  70, 342,
  70, 343,
  70, 345,
  70, 349,
  70, 350,
  70, 351,
  70, 352,
  70, 353,
  70, 354,
  70, 355,
  70, 357,
  70, 360,
  70, 362,
  70, 363,
  70, 364,
  70, 365,
  70, 366,
  70, 370,
  70, 373,
  70, 376,
  70, 377,
  70, 378,
  70, 379,
  70, 380,
  70, 385,
  70, 386,
  70, 388,
  70, 390,
  70, 393,
  70, 397,
  70, 400,
  70, 402,
  70, 403,
  70, 405,
  70, 406,
  70, 409,
  70, 410,
  70, 416,
  70, 418,
  70, 419,
  70, 422,
  70, 424,
  70, 427,
  70, 428,
  70, 429,
  70, 430,
  70, 431,
  70, 433,
  70, 434,
  70, 435,
  70, 436,
  70, 439,
  70, 442,
  70, 443,
  70, 446,
  70, 448,
  70, 452,
  70, 455,
  70, 459,
  70, 462,
  70, 464,
  70, 465,
  70, 466,
  70, 469,
  70, 471,
  70, 478,
  70, 479,
  70, 482,
  70, 483,
  70, 488,
  70, 489,
  70, 490,
  70, 491,
  70, 493,
  70, 495,
  70, 498,
  71, 72,
  71, 74,
  71, 75,
  71, 77,
  71, 80,
  71, 81,
  71, 89,
  71, 95,
  71, 98,
  71, 99,
  71, 101,
  71, 102,
  71, 103,
  71, 105,
  71, 106,
  71, 111,
  71, 113,
  71, 116,
  71, 120,
  71, 121,
  71, 122,
  71, 123,
  71, 126,
  71, 128,
  71, 129,
  71, 133,
  71, 134,
  71, 135,
  71, 138,
  71, 144,
  71, 146,
  71, 150,
  71, 151,
  71, 153,
  71, 154,
  71, 155,
  71, 159,
  71, 161,
  71, 162,
  71, 164,
  71, 165,
  71, 167,
  71, 169,
  71, 170,
  71, 171,
  71, 172,
  71, 174,
  71, 175,
  71, 176,
  71, 178,
  71, 180,
  71, 181,
  71, 182,
  71, 183,
  71, 184,
  71, 187,
  71, 188,
  71, 190,
  71, 191,
  71, 192,
  71, 194,
  71, 198,
  71, 201,
  71, 203,
  71, 204,
  71, 206,
  71, 207,
  71, 208,
  71, 212,
  71, 215,
  71, 216,
  71, 217,
  71, 218,
  71, 221,
  71, 222,
  71, 224,
  71, 229,
  71, 230,
  71, 232,
  71, 235,
  71, 236,
  71, 237,
  71, 238,
  71, 239,
  71, 243,
  71, 244,
  71, 246,
  71, 254,
  71, 257,
  71, 258,
  71, 259,
  71, 263,
  71, 265,
  71, 268,
  71, 269,
  71, 270,
  71, 272,
  71, 273,
  71, 275,
  71, 277,
  71, 280,
  71, 281,
  71, 283,
  71, 284,
  71, 285,
  71, 286,
  71, 288,
  71, 289,
  71, 290,
  71, 291,
  71, 295,
  71, 298,
  71, 301,
  71, 304,
  71, 305,
  71, 307,
  71, 309,
  71, 310,
  71, 313,
  71, 316,
  71, 317,
  71, 320,
  71, 321,
  71, 326,
  71, 327,
  71, 334,
  71, 335,
  71, 336,
  71, 338,
  71, 339,
  71, 340,
  71, 341,
  71, 343,
  71, 344,
  71, 345,
  71, 350,
  71, 351,
  71, 352,
  71, 353,
  71, 354,
  71, 359,
  71, 360,
  71, 361,
  71, 362,
  71, 365,
  71, 368,
  71, 370,
  71, 372,
  71, 374,
  71, 376,
  71, 378,
  71, 379,
  71, 382,
  71, 384,
  71, 391,
  71, 395,
  71, 397,
  71, 398,
  71, 399,
  71, 401,
  71, 403,
  71, 405,
  71, 408,
  71, 409,
  71, 411,
  71, 412,
  71, 413,
  71, 414,
  71, 416,
  71, 417,
  71, 420,
  71, 423,
  71, 425,
  71, 430,
  71, 431,
  71, 435,
  71, 439,
  71, 442,
  71, 446,
  71, 450,
  71, 451,
  71, 452,
  71, 453,
  71, 458,
  71, 459,
  71, 460,
  71, 461,
  71, 463,
  71, 464,
  71, 468,
  71, 469,
  71, 470,
  71, 472,
  71, 473,
  71, 474,
  71, 477,
  71, 480,
  71, 481,
  71, 482,
  71, 483,
  71, 484,
  71, 485,
  71, 486,
  71, 487,
  71, 489,
  71, 492,
  71, 494,
  71, 495,
  71, 498,
  71, 499,
  71, 500,
  72, 73,
  72, 76,
  72, 80,
  72, 81,
  72, 85,
  72, 88,
  72, 90,
  72, 93,
  72, 101,
  72, 102,
  72, 103,
  72, 109,
  72, 110,
  72, 114,
  72, 115,
  72, 118,
  72, 119,
  72, 124,
  72, 125,
  72, 126,
  72, 130,
  72, 131,
  72, 133,
  72, 139,
  72, 142,
  72, 144,
  72, 147,
  72, 148,
  72, 150,
  72, 151,
  72, 157,
  72, 158,
  72, 160,
  72, 163,
  72, 164,
  72, 166,
  72, 167,
  72, 168,
  72, 169,
  72, 170,
  72, 172,
  72, 175,
  72, 178,
  72, 180,
  72, 181,
  72, 183,
  72, 185,
  72, 186,
  72, 187,
  72, 188,
  72, 189,
  72, 190,
  72, 194,
  72, 198,
  72, 199,
  72, 203,
  72, 205,
  72, 207,
  72, 209,
  72, 211,
  72, 215,
  72, 217,
  72, 219,
  72, 226,
  72, 228,
  72, 229,
  72, 230,
  72, 234,
  72, 235,
  72, 239,
  72, 243,
  72, 245,
  72, 249,
  72, 253,
  72, 255,
  72, 256,
  72, 257,
  72, 260,
  72, 261,
  72, 262,
  72, 263,
  72, 265,
  72, 266,
  72, 267,
  72, 271,
  72, 272,
  72, 273,
  72, 274,
  72, 275,
  72, 277,
  72, 278,
  72, 281,
  72, 282,
  72, 283,
  72, 287,
  72, 289,
  72, 293,
  72, 295,
  72, 296,
  72, 297,
  72, 298,
  72, 299,
  72, 302,
  72, 307,
  72, 308,
  72, 309,
  72, 311,
  72, 314,
  72, 315,
  72, 316,
  72, 318,
  72, 322,
  72, 323,
  72, 324,
  72, 325,
  72, 326,
  72, 327,
  72, 328,
  72, 331,
  72, 332,
  72, 334,
  72, 335,
  72, 336,
  72, 338,
  72, 340,
  72, 341,
  72, 346,
  72, 348,
  72, 350,
  72, 352,
  72, 355,
  72, 357,
  72, 360,
  72, 361,
  72, 362,
  72, 363,
  72, 365,
  72, 368,
  72, 369,
  72, 370,
  72, 371,
  72, 372,
  72, 373,
  72, 375,
  72, 377,
  72, 379,
  72, 382,
  72, 386,
  72, 387,
  72, 388,
  72, 389,
  72, 390,
  72, 394,
  72, 395,
  72, 397,
  72, 398,
  72, 400,
  72, 408,
  72, 410,
  72, 412,
  72, 414,
  72, 416,
  72, 417,
  72, 419,
  72, 422,
  72, 425,
  72, 426,
  72, 427,
  72, 430,
  72, 431,
  72, 432,
  72, 433,
  72, 435,
  72, 436,
  72, 438,
  72, 440,
  72, 441,
  72, 442,
  72, 446,
  72, 448,
  72, 449,
  72, 451,
  72, 453,
  72, 454,
  72, 456,
  72, 458,
  72, 459,
  72, 461,
  72, 463,
  72, 464,
  72, 468,
  72, 471,
  72, 473,
  72, 474,
  72, 478,
  72, 485,
  72, 486,
  72, 487,
  72, 491,
  72, 493,
  72, 494,
  72, 495,
  72, 496,
  72, 497,
  72, 500,
  73, 75,
  73, 82,
  73, 84,
  73, 87,
  73, 88,
  73, 91,
  73, 93,
  73, 94,
  73, 95,
  73, 96,
  73, 97,
  73, 99,
  73, 101,
  73, 102,
  73, 104,
  73, 105,
  73, 108,
  73, 110,
  73, 111,
  73, 113,
  73, 114,
  73, 115,
  73, 116,
  73, 117,
  73, 120,
  73, 121,
  73, 123,
  73, 124,
  73, 126,
  73, 128,
  73, 133,
  73, 134,
  73, 136,
  73, 138,
  73, 139,
  73, 141,
  73, 142,
  73, 147,
  73, 150,
  73, 152,
  73, 154,
  73, 156,
  73, 158,
  73, 159,
  73, 161,
  73, 162,
  73, 163,
  73, 164,
  73, 168,
  73, 169,
  73, 170,
  73, 173,
  73, 178,
  73, 179,
  73, 181,
  73, 182,
  73, 183,
  73, 184,
  73, 185,
  73, 186,
  73, 188,
  73, 190,
  73, 192,
  73, 193,
  73, 194,
  73, 195,
  73, 196,
  73, 197,
  73, 198,
  73, 204,
  73, 205,
  73, 207,
  73, 209,
  73, 210,
  73, 211,
  73, 213,
  73, 217,
  73, 219,
  73, 226,
  73, 228,
  73, 230,
  73, 231,
  73, 232,
  73, 233,
  73, 236,
  73, 238,
  73, 239,
  73, 244,
  73, 246,
  73, 251,
  73, 252,
  73, 254,
  73, 255,
  73, 256,
  73, 259,
  73, 260,
  73, 262,
  73, 263,
  73, 264,
  73, 265,
  73, 267,
  73, 269,
  73, 274,
  73, 278,
  73, 281,
  73, 283,
  73, 284,
  73, 286,
  73, 287,
  73, 288,
  73, 289,
  73, 290,
  73, 291,
  73, 292,
  73, 294,
  73, 298,
  73, 301,
  73, 303,
  73, 304,
  73, 310,
  73, 311,
  73, 312,
  73, 315,
  73, 316,
  73, 320,
  73, 321,
  73, 323,
  73, 326,
  73, 327,
  73, 329,
  73, 331,
  73, 332,
  73, 334,
  73, 335,
  73, 338,
  73, 341,
  73, 342,
  73, 343,
  73, 344,
  73, 347,
  73, 349,
  73, 350,
  73, 351,
  73, 352,
  73, 353,
  73, 355,
  73, 356,
  73, 358,
  73, 360,
  73, 364,
  73, 366,
  73, 370,
  73, 373,
  73, 376,
  73, 377,
  73, 379,
  73, 380,
  73, 383,
  73, 390,
  73, 393,
  73, 395,
  73, 396,
  73, 401,
  73, 403,
  73, 404,
  73, 407,
  73, 408,
  73, 410,
  73, 414,
  73, 417,
  73, 418,
  73, 421,
  73, 425,
  73, 426,
  73, 427,
  73, 430,
  73, 432,
  73, 434,
  73, 435,
  73, 437,
  73, 438,
  73, 439,
  73, 440,
  73, 441,
  73, 442,
  73, 443,
  73, 447,
  73, 451,
  73, 453,
  73, 455,
  73, 456,
  73, 457,
  73, 459,
  73, 460,
  73, 461,
  73, 463,
  73, 464,
  73, 465,
  73, 467,
  73, 468,
  73, 474,
  73, 479,
  73, 480,
  73, 481,
  73, 482,
  73, 486,
  73, 488,
  73, 490,
  73, 493,
  73, 494,
  73, 496,
  73, 497,
  73, 498,
  73, 499,
  74, 75,
  74, 78,
  74, 80,
  74, 81,
  74, 82,
  74, 84,
  74, 88,
  74, 89,
  74, 90,
  74, 91,
  74, 92,
  74, 93,
  74, 96,
  74, 97,
  74, 99,
  74, 100,
  74, 101,
  74, 104,
  74, 106,
  74, 111,
  74, 115,
  74, 117,
  74, 119,
  74, 122,
  74, 123,
  74, 124,
  74, 125,
  74, 127,
  74, 131,
  74, 132,
  74, 133,
  74, 134,
  74, 135,
  74, 138,
  74, 140,
  74, 141,
  74, 142,
  74, 143,
  74, 144,
  74, 145,
  74, 146,
  74, 147,
  74, 148,
  74, 151,
  74, 153,
  74, 157,
  74, 159,
  74, 161,
  74, 162,
  74, 167,
  74, 169,
  74, 170,
  74, 172,
  74, 174,
  74, 176,
  74, 179,
  74, 184,
  74, 187,
  74, 188,
  74, 192,
  74, 195,
  74, 196,
  74, 199,
  74, 200,
  74, 203,
  74, 204,
  74, 208,
  74, 209,
  74, 213,
  74, 214,
  74, 216,
  74, 217,
  74, 219,
  74, 223,
  74, 224,
  74, 226,
  74, 227,
  74, 229,
  74, 230,
  74, 231,
  74, 232,
  74, 233,
  74, 236,
  74, 237,
  74, 238,
  74, 239,
  74, 242,
  74, 247,
  74, 252,
  74, 256,
  74, 257,
  74, 258,
  74, 260,
  74, 262,
  74, 263,
  74, 266,
  74, 268,
  74, 271,
  74, 272,
  74, 276,
  74, 277,
  74, 279,
  74, 280,
  74, 281,
  74, 282,
  74, 284,
  74, 285,
  74, 286,
  74, 288,
  74, 291,
  74, 292,
  74, 295,
  74, 296,
  74, 298,
  74, 299,
  74, 300,
  74, 303,
  74, 304,
  74, 309,
  74, 310,
  74, 311,
  74, 312,
  74, 313,
  74, 315,
  74, 316,
  74, 319,
  74, 321,
  74, 322,
  74, 324,
  74, 325,
  74, 326,
  74, 327,
  74, 328,
  74, 329,
  74, 333,
  74, 335,
  74, 338,
  74, 339,
  74, 340,
  74, 341,
  74, 342,
  74, 343,
  74, 345,
  74, 347,
  74, 348,
  74, 349,
  74, 353,
  74, 354,
  74, 355,
  74, 357,
  74, 358,
  74, 359,
  74, 362,
  74, 364,
  74, 366,
  74, 367,
  74, 369,
  74, 370,
  74, 373,
  74, 376,
  74, 378,
  74, 382,
  74, 385,
  74, 389,
  74, 390,
  74, 391,
  74, 394,
  74, 395,
  74, 396,
  74, 398,
  74, 402,
  74, 403,
  74, 404,
  74, 408,
  74, 410,
  74, 411,
  74, 413,
  74, 414,
  74, 417,
  74, 419,
  74, 420,
  74, 421,
  74, 425,
  74, 426,
  74, 428,
  74, 430,
  74, 431,
  74, 433,
  74, 435,
  74, 436,
  74, 437,
  74, 439,
  74, 442,
  74, 443,
  74, 445,
  74, 446,
  74, 449,
  74, 451,
  74, 455,
  74, 456,
  74, 457,
  74, 460,
  74, 461,
  74, 462,
  74, 463,
  74, 464,
  74, 468,
  74, 469,
  74, 470,
  74, 471,
  74, 473,
  74, 475,
  74, 476,
  74, 477,
  74, 478,
  74, 480,
  74, 481,
  74, 482,
  74, 484,
  74, 487,
  74, 490,
  74, 493,
  74, 494,
  74, 497,
  74, 499,
  74, 500,
  75, 76,
  75, 77,
  75, 79,
  75, 80,
  75, 81,
  75, 84,
  75, 85,
  75, 86,
  75, 87,
  75, 88,
  75, 89,
  75, 90,
  75, 92,
  75, 93,
  75, 94,
  75, 95,
  75, 96,
  75, 99,
  75, 100,
  75, 103,
  75, 104,
  75, 107,
  75, 108,
  75, 112,
  75, 114,
  75, 121,
  75, 123,
  75, 126,
  75, 128,
  75, 129,
  75, 133,
  75, 134,
  75, 138,
  75, 139,
  75, 140,
  75, 142,
  75, 143,
  75, 145,
  75, 147,
  75, 148,
  75, 151,
  75, 153,
  75, 154,
  75, 156,
  75, 157,
  75, 159,
  75, 162,
  75, 164,
  75, 169,
  75, 171,
  75, 176,
  75, 177,
  75, 179,
  75, 180,
  75, 181,
  75, 182,
  75, 183,
  75, 184,
  75, 187,
  75, 189,
  75, 190,
  75, 191,
  75, 192,
  75, 194,
  75, 195,
  75, 197,
  75, 198,
  75, 199,
  75, 201,
  75, 202,
  75, 204,
  75, 206,
  75, 214,
  75, 215,
  75, 216,
  75, 218,
  75, 222,
  75, 224,
  75, 226,
  75, 230,
  75, 231,
  75, 232,
  75, 234,
  75, 236,
  75, 238,
  75, 240,
  75, 241,
  75, 244,
  75, 247,
  75, 248,
  75, 249,
  75, 251,
  75, 252,
  75, 253,
  75, 254,
  75, 257,
  75, 259,
  75, 261,
  75, 262,
  75, 265,
  75, 266,
  75, 268,
  75, 276,
  75, 278,
  75, 280,
  75, 283,
  75, 286,
  75, 287,
  75, 289,
  75, 291,
  75, 293,
  75, 294,
  75, 298,
  75, 299,
  75, 300,
  75, 301,
  75, 304,
  75, 305,
  75, 306,
  75, 311,
  75, 312,
  75, 314,
  75, 315,
  75, 316,
  75, 317,
  75, 318,
  75, 319,
  75, 320,
  75, 322,
  75, 324,
  75, 325,
  75, 326,
  75, 329,
  75, 332,
  75, 333,
  75, 337,
  75, 338,
  75, 340,
  75, 341,
  75, 353,
  75, 354,
  75, 355,
  75, 358,
  75, 361,
  75, 363,
  75, 365,
  75, 366,
  75, 368,
  75, 370,
  75, 375,
  75, 377,
  75, 378,
  75, 379,
  75, 380,
  75, 381,
  75, 382,
  75, 383,
  75, 386,
  75, 391,
  75, 393,
  75, 396,
  75, 397,
  75, 402,
  75, 403,
  75, 406,
  75, 409,
  75, 412,
  75, 414,
  75, 418,
  75, 420,
  75, 422,
  75, 424,
  75, 425,
  75, 426,
  75, 428,
  75, 429,
  75, 430,
  75, 433,
  75, 434,
  75, 435,
  75, 436,
  75, 437,
  75, 438,
  75, 439,
  75, 445,
  75, 447,
  75, 449,
  75, 450,
  75, 451,
  75, 452,
  75, 455,
  75, 458,
  75, 462,
  75, 463,
  75, 465,
  75, 473,
  75, 476,
  75, 477,
  75, 478,
  75, 479,
  75, 480,
  75, 482,
  75, 483,
  75, 485,
  75, 486,
  75, 487,
  75, 490,
  75, 496,
  75, 498,
  75, 500,
  76, 77,
  76, 78,
  76, 79,
  76, 80,
  76, 81,
  76, 84,
  76, 88,
  76, 90,
  76, 92,
  76, 98,
  76, 99,
  76, 100,
  76, 103,
  76, 104,
  76, 105,
  76, 106,
  76, 107,
  76, 108,
  76, 109,
  76, 110,
  76, 113,
  76, 114,
  76, 115,
  76, 117,
  76, 121,
  76, 122,
  76, 127,
  76, 130,
  76, 131,
  76, 132,
  76, 133,
  76, 134,
  76, 136,
  76, 137,
  76, 138,
  76, 145,
  76, 150,
  76, 151,
  76, 152,
  76, 153,
  76, 155,
  76, 157,
  76, 158,
  76, 161,
  76, 162,
  76, 163,
  76, 164,
  76, 166,
  76, 168,
  76, 171,
  76, 172,
  76, 173,
  76, 176,
  76, 178,
  76, 179,
  76, 180,
  76, 181,
  76, 182,
  76, 185,
  76, 186,
  76, 188,
  76, 189,
  76, 190,
  76, 191,
  76, 192,
  76, 199,
  76, 201,
  76, 205,
  76, 209,
  76, 212,
  76, 214,
  76, 216,
  76, 218,
  76, 223,
  76, 225,
  76, 227,
  76, 228,
  76, 229,
  76, 230,
  76, 231,
  76, 232,
  76, 235,
  76, 238,
  76, 239,
  76, 242,
  76, 245,
  76, 246,
  76, 247,
  76, 249,
  76, 251,
  76, 252,
  76, 253,
  76, 259,
  76, 261,
  76, 265,
  76, 267,
  76, 269,
  76, 273,
  76, 275,
  76, 276,
  76, 277,
  76, 281,
  76, 283,
  76, 287,
  76, 288,
  76, 290,
  76, 291,
  76, 295,
  76, 296,
  76, 298,
  76, 300,
  76, 302,
  76, 303,
  76, 304,
  76, 305,
  76, 306,
  76, 307,
  76, 310,
  76, 313,
  76, 314,
  76, 315,
  76, 317,
  76, 319,
  76, 321,
  76, 323,
  76, 332,
  76, 334,
  76, 335,
  76, 337,
  76, 338,
  76, 341,
  76, 342,
  76, 343,
  76, 344,
  76, 345,
  76, 347,
  76, 352,
  76, 353,
  76, 357,
  76, 358,
  76, 359,
  76, 361,
  76, 364,
  76, 365,
  76, 366,
  76, 368,
  76, 375,
  76, 376,
  76, 379,
  76, 381,
  76, 383,
  76, 384,
  76, 386,
  76, 389,
  76, 391,
  76, 394,
  76, 395,
  76, 400,
  76, 403,
  76, 410,
  76, 412,
  76, 414,
  76, 417,
  76, 419,
  76, 422,
  76, 423,
  76, 428,
  76, 429,
  76, 430,
  76, 431,
  76, 432,
  76, 434,
  76, 435,
  76, 439,
  76, 442,
  76, 443,
  76, 444,
  76, 445,
  76, 446,
  76, 447,
  76, 448,
  76, 453,
  76, 454,
  76, 455,
  76, 456,
  76, 457,
  76, 459,
  76, 461,
  76, 462,
  76, 464,
  76, 466,
  76, 467,
  76, 468,
  76, 469,
  76, 474,
  76, 475,
  76, 477,
  76, 479,
  76, 480,
  76, 482,
  76, 488,
  76, 490,
  76, 492,
  76, 497,
  76, 500,
  77, 78,
  77, 80,
  77, 83,
  77, 93,
  77, 94,
  77, 98,
  77, 99,
  77, 100,
  77, 101,
  77, 102,
  77, 104,
  77, 105,
  77, 109,
  77, 110,
  77, 114,
  77, 115,
  77, 116,
  77, 117,
  77, 120,
  77, 122,
  77, 123,
  77, 124,
  77, 125,
  77, 127,
  77, 128,
  77, 130,
  77, 134,
  77, 135,
  77, 136,
  77, 139,
  77, 140,
  77, 144,
  77, 148,
  77, 151,
  77, 152,
  77, 153,
  77, 154,
  77, 156,
  77, 161,
  77, 165,
  77, 166,
  77, 170,
  77, 172,
  77, 175,
  77, 177,
  77, 178,
  77, 179,
  77, 180,
  77, 182,
  77, 183,
  77, 187,
  77, 188,
  77, 190,
  77, 191,
  77, 192,
  77, 195,
  77, 196,
  77, 199,
  77, 200,
  77, 203,
  77, 206,
  77, 209,
  77, 210,
  77, 212,
  77, 213,
  77, 216,
  77, 219,
  77, 220,
  77, 221,
  77, 222,
  77, 223,
  77, 226,
  77, 227,
  77, 230,
  77, 238,
  77, 239,
  77, 240,
  77, 241,
  77, 242,
  77, 244,
  77, 246,
  77, 247,
  77, 249,
  77, 254,
  77, 255,
  77, 256,
  77, 257,
  77, 258,
  77, 259,
  77, 263,
  77, 265,
  77, 267,
  77, 269,
  77, 271,
  77, 272,
  77, 275,
  77, 276,
  77, 280,
  77, 281,
  77, 284,
  77, 285,
  77, 287,
  77, 288,
  77, 290,
  77, 294,
  77, 298,
  77, 299,
  77, 300,
  77, 301,
  77, 302,
  77, 303,
  77, 304,
  77, 305,
  77, 314,
  77, 317,
  77, 319,
  77, 320,
  77, 325,
  77, 326,
  77, 327,
  77, 328,
  77, 329,
  77, 330,
  77, 331,
  77, 334,
  77, 336,
  77, 337,
  77, 339,
  77, 340,
  77, 341,
  77, 344,
  77, 345,
  77, 346,
  77, 348,
  77, 350,
  77, 352,
  77, 354,
  77, 355,
  77, 360,
  77, 362,
  77, 363,
  77, 364,
  77, 365,
  77, 366,
  77, 369,
  77, 370,
  77, 373,
  77, 381,
  77, 384,
  77, 385,
  77, 387,
  77, 388,
  77, 389,
  77, 391,
  77, 392,
  77, 395,
  77, 405,
  77, 406,
  77, 408,
  77, 409,
  77, 410,
  77, 415,
  77, 416,
  77, 420,
  77, 421,
  77, 422,
  77, 423,
  77, 425,
  77, 427,
  77, 429,
  77, 430,
  77, 431,
  77, 432,
  77, 434,
  77, 436,
  77, 439,
  77, 440,
  77, 442,
  77, 443,
  77, 448,
  77, 453,
  77, 456,
  77, 457,
  77, 458,
  77, 459,
  77, 460,
  77, 463,
  77, 466,
  77, 469,
  77, 470,
  77, 472,
  77, 474,
  77, 476,
  77, 479,
  77, 480,
  77, 481,
  77, 483,
  77, 485,
  77, 488,
  77, 492,
  77, 493,
  77, 494,
  77, 496,
  77, 497,
  77, 498,
  77, 499,
  78, 87,
  78, 88,
  78, 89,
  78, 93,
  78, 96,
  78, 101,
  78, 102,
  78, 103,
  78, 104,
  78, 105,
  78, 106,
  78, 107,
  78, 110,
  78, 113,
  78, 115,
  78, 116,
  78, 119,
  78, 120,
  78, 121,
  78, 123,
  78, 125,
  78, 126,
  78, 130,
  78, 132,
  78, 133,
  78, 135,
  78, 137,
  78, 138,
  78, 140,
  78, 141,
  78, 143,
  78, 146,
  78, 148,
  78, 149,
  78, 151,
  78, 154,
  78, 158,
  78, 159,
  78, 161,
  78, 163,
  78, 164,
  78, 165,
  78, 166,
  78, 167,
  78, 168,
  78, 169,
  78, 174,
  78, 175,
  78, 177,
  78, 178,
  78, 179,
  78, 180,
  78, 185,
  78, 186,
  78, 187,
  78, 189,
  78, 190,
  78, 193,
  78, 194,
  78, 196,
  78, 200,
  78, 203,
  78, 204,
  78, 205,
  78, 207,
  78, 208,
  78, 211,
  78, 213,
  78, 214,
  78, 216,
  78, 220,
  78, 221,
  78, 225,
  78, 227,
  78, 228,
  78, 231,
  78, 232,
  78, 236,
  78, 237,
  78, 239,
  78, 241,
  78, 242,
  78, 243,
  78, 246,
  78, 247,
  78, 248,
  78, 249,
  78, 252,
  78, 254,
  78, 255,
  78, 256,
  78, 257,
  78, 258,
  78, 262,
  78, 263,
  78, 266,
  78, 268,
  78, 269,
  78, 270,
  78, 271,
  78, 272,
  78, 274,
  78, 275,
  78, 276,
  78, 277,
  78, 278,
  78, 281,
  78, 286,
  78, 287,
  78, 289,
  78, 290,
  78, 291,
  78, 295,
  78, 298,
  78, 301,
  78, 305,
  78, 306,
  78, 307,
  78, 313,
  78, 314,
  78, 315,
  78, 317,
  78, 321,
  78, 322,
  78, 326,
  78, 327,
  78, 329,
  78, 330,
  78, 331,
  78, 333,
  78, 334,
  78, 335,
  78, 336,
  78, 339,
  78, 340,
  78, 342,
  78, 344,
  78, 346,
  78, 351,
  78, 352,
  78, 353,
  78, 354,
  78, 355,
  78, 356,
  78, 357,
  78, 358,
  78, 360,
  78, 362,
  78, 363,
  78, 364,
  78, 365,
  78, 367,
  78, 369,
  78, 375,
  78, 376,
  78, 377,
  78, 378,
  78, 380,
  78, 381,
  78, 382,
  78, 383,
  78, 385,
  78, 387,
  78, 388,
  78, 389,
  78, 390,
  78, 393,
  78, 394,
  78, 395,
  78, 396,
  78, 397,
  78, 398,
  78, 405,
  78, 406,
  78, 407,
  78, 408,
  78, 409,
  78, 410,
  78, 413,
  78, 420,
  78, 421,
  78, 422,
  78, 423,
  78, 424,
  78, 425,
  78, 430,
  78, 431,
  78, 432,
  78, 435,
  78, 439,
  78, 443,
  78, 444,
  78, 446,
  78, 449,
  78, 451,
  78, 452,
  78, 455,
  78, 457,
  78, 461,
  78, 462,
  78, 465,
  78, 466,
  78, 471,
  78, 473,
  78, 475,
  78, 476,
  78, 478,
  78, 479,
  78, 480,
  78, 482,
  78, 484,
  78, 485,
  78, 486,
  78, 487,
  78, 488,
  78, 489,
  78, 491,
  78, 492,
  78, 493,
  78, 494,
  78, 496,
  78, 498,
  78, 499,
  78, 500,
  79, 80,
  79, 82,
  79, 88,
  79, 89,
  79, 92,
  79, 94,
  79, 95,
  79, 100,
  79, 102,
  79, 105,
  79, 106,
  79, 107,
  79, 109,
  79, 110,
  79, 111,
  79, 112,
  79, 113,
  79, 115,
  79, 117,
  79, 118,
  79, 120,
  79, 121,
  79, 122,
  79, 123,
  79, 124,
  79, 126,
  79, 128,
  79, 129,
  79, 132,
  79, 135,
  79, 136,
  79, 137,
  79, 138,
  79, 140,
  79, 142,
  79, 143,
  79, 145,
  79, 147,
  79, 149,
  79, 150,
  79, 151,
  79, 152,
  79, 154,
  79, 155,
  79, 156,
  79, 157,
  79, 158,
  79, 159,
  79, 160,
  79, 162,
  79, 168,
  79, 171,
  79, 173,
  79, 174,
  79, 175,
  79, 176,
  79, 177,
  79, 179,
  79, 183,
  79, 185,
  79, 186,
  79, 188,
  79, 190,
  79, 192,
  79, 195,
  79, 196,
  79, 197,
  79, 199,
  79, 201,
  79, 202,
  79, 204,
  79, 207,
  79, 210,
  79, 211,
  79, 212,
  79, 214,
  79, 216,
  79, 220,
  79, 221,
  79, 223,
  79, 225,
  79, 226,
  79, 227,
  79, 228,
  79, 233,
  79, 234,
  79, 237,
  79, 238,
  79, 240,
  79, 242,
  79, 243,
  79, 248,
  79, 250,
  79, 253,
  79, 257,
  79, 260,
  79, 263,
  79, 265,
  79, 267,
  79, 268,
  79, 272,
  79, 273,
  79, 275,
  79, 276,
  79, 277,
  79, 278,
  79, 279,
  79, 280,
  79, 282,
  79, 284,
  79, 288,
  79, 289,
  79, 292,
  79, 297,
  79, 300,
  79, 301,
  79, 302,
  79, 306,
  79, 307,
  79, 316,
  79, 318,
  79, 319,
  79, 321,
  79, 322,
  79, 323,
  79, 324,
  79, 325,
  79, 326,
  79, 328,
  79, 329,
  79, 330,
  79, 331,
  79, 332,
  79, 333,
  79, 334,
  79, 335,
  79, 337,
  79, 338,
  79, 339,
  79, 340,
  79, 342,
  79, 346,
  79, 347,
  79, 349,
  79, 351,
  79, 353,
  79, 355,
  79, 361,
  79, 364,
  79, 369,
  79, 370,
  79, 372,
  79, 373,
  79, 374,
  79, 375,
  79, 378,
  79, 379,
  79, 380,
  79, 381,
  79, 384,
  79, 385,
  79, 386,
  79, 389,
  79, 390,
  79, 391,
  79, 397,
  79, 398,
  79, 401,
  79, 402,
  79, 403,
  79, 404,
  79, 405,
  79, 406,
  79, 408,
  79, 409,
  79, 415,
  79, 416,
  79, 417,
  79, 418,
  79, 420,
  79, 421,
  79, 423,
  79, 426,
  79, 429,
  79, 430,
  79, 431,
  79, 432,
  79, 433,
  79, 436,
  79, 437,
  79, 439,
  79, 441,
  79, 444,
  79, 445,
  79, 446,
  79, 447,
  79, 448,
  79, 449,
  79, 450,
  79, 451,
  79, 454,
  79, 456,
  79, 459,
  79, 461,
  79, 463,
  79, 466,
  79, 467,
  79, 470,
  79, 471,
  79, 472,
  79, 477,
  79, 478,
  79, 479,
  79, 480,
  79, 484,
  79, 485,
  79, 486,
  79, 487,
  79, 488,
  79, 489,
  79, 490,
  79, 491,
  79, 492,
  79, 496,
  79, 497,
  79, 500,
  80, 81,
  80, 83,
  80, 84,
  80, 86,
  80, 87,
  80, 88,
  80, 89,
  80, 92,
  80, 93,
  80, 94,
  80, 96,
  80, 99,
  80, 100,
  80, 106,
  80, 107,
  80, 108,
  80, 110,
  80, 112,
  80, 113,
  80, 115,
  80, 116,
  80, 118,
  80, 119,
  80, 120,
  80, 121,
  80, 125,
  80, 126,
  80, 130,
  80, 131,
  80, 135,
  80, 136,
  80, 138,
  80, 140,
  80, 141,
  80, 143,
  80, 144,
  80, 147,
  80, 148,
  80, 149,
  80, 152,
  80, 153,
  80, 158,
  80, 160,
  80, 163,
  80, 165,
  80, 166,
  80, 169,
  80, 170,
  80, 172,
  80, 174,
  80, 176,
  80, 177,
  80, 178,
  80, 179,
  80, 181,
  80, 182,
  80, 189,
  80, 191,
  80, 193,
  80, 194,
  80, 195,
  80, 196,
  80, 201,
  80, 202,
  80, 205,
  80, 206,
  80, 207,
  80, 209,
  80, 211,
  80, 213,
  80, 214,
  80, 215,
  80, 217,
  80, 218,
  80, 220,
  80, 223,
  80, 225,
  80, 226,
  80, 227,
  80, 228,
  80, 229,
  80, 232,
  80, 233,
  80, 234,
  80, 235,
  80, 237,
  80, 238,
  80, 243,
  80, 246,
  80, 250,
  80, 255,
  80, 256,
  80, 258,
  80, 262,
  80, 265,
  80, 266,
  80, 267,
  80, 268,
  80, 269,
  80, 274,
  80, 275,
  80, 276,
  80, 277,
  80, 278,
  80, 280,
  80, 284,
  80, 285,
  80, 286,
  80, 287,
  80, 288,
  80, 289,
  80, 292,
  80, 294,
  80, 295,
  80, 296,
  80, 297,
  80, 303,
  80, 305,
  80, 306,
  80, 307,
  80, 308,
  80, 309,
  80, 311,
  80, 312,
  80, 313,
  80, 316,
  80, 317,
  80, 318,
  80, 322,
  80, 323,
  80, 325,
  80, 326,
  80, 331,
  80, 332,
  80, 333,
  80, 335,
  80, 336,
  80, 338,
  80, 340,
  80, 341,
  80, 346,
  80, 347,
  80, 348,
  80, 349,
  80, 350,
  80, 352,
  80, 353,
  80, 355,
  80, 357,
  80, 359,
  80, 361,
  80, 363,
  80, 364,
  80, 367,
  80, 373,
  80, 375,
  80, 377,
  80, 378,
  80, 381,
  80, 383,
  80, 387,
  80, 389,
  80, 390,
  80, 394,
  80, 399,
  80, 400,
  80, 403,
  80, 405,
  80, 407,
  80, 411,
  80, 412,
  80, 414,
  80, 416,
  80, 417,
  80, 420,
  80, 421,
  80, 422,
  80, 424,
  80, 425,
  80, 427,
  80, 431,
  80, 432,
  80, 433,
  80, 435,
  80, 436,
  80, 437,
  80, 439,
  80, 440,
  80, 441,
  80, 442,
  80, 444,
  80, 446,
  80, 448,
  80, 449,
  80, 450,
  80, 453,
  80, 455,
  80, 456,
  80, 457,
  80, 458,
  80, 460,
  80, 464,
  80, 465,
  80, 473,
  80, 475,
  80, 478,
  80, 479,
  80, 480,
  80, 483,
  80, 485,
  80, 488,
  80, 489,
  80, 490,
  80, 493,
  80, 494,
  80, 496,
  80, 498,
  81, 85,
  81, 86,
  81, 87,
  81, 88,
  81, 89,
  81, 92,
  81, 94,
  81, 96,
  81, 98,
  81, 99,
  81, 103,
  81, 105,
  81, 106,
  81, 111,
  81, 113,
  81, 115,
  81, 116,
  81, 117,
  81, 121,
  81, 123,
  81, 124,
  81, 127,
  81, 128,
  81, 129,
  81, 132,
  81, 134,
  81, 135,
  81, 136,
  81, 140,
  81, 142,
  81, 144,
  81, 145,
  81, 146,
  81, 150,
  81, 151,
  81, 154,
  81, 156,
  81, 157,
  81, 159,
  81, 160,
  81, 161,
  81, 166,
  81, 168,
  81, 169,
  81, 170,
  81, 176,
  81, 179,
  81, 181,
  81, 189,
  81, 196,
  81, 197,
  81, 198,
  81, 199,
  81, 202,
  81, 204,
  81, 207,
  81, 208,
  81, 211,
  81, 216,
  81, 217,
  81, 219,
  81, 220,
  81, 221,
  81, 222,
  81, 223,
  81, 224,
  81, 225,
  81, 227,
  81, 228,
  81, 229,
  81, 232,
  81, 233,
  81, 235,
  81, 237,
  81, 241,
  81, 243,
  81, 246,
  81, 250,
  81, 252,
  81, 254,
  81, 259,
  81, 260,
  81, 261,
  81, 262,
  81, 263,
  81, 266,
  81, 267,
  81, 268,
  81, 273,
  81, 274,
  81, 275,
  81, 276,
  81, 278,
  81, 279,
  81, 280,
  81, 281,
  81, 283,
  81, 286,
  81, 288,
  81, 291,
  81, 292,
  81, 297,
  81, 298,
  81, 299,
  81, 300,
  81, 303,
  81, 306,
  81, 308,
  81, 309,
  81, 311,
  81, 314,
  81, 315,
  81, 317,
  81, 320,
  81, 322,
  81, 326,
  81, 328,
  81, 329,
  81, 330,
  81, 332,
  81, 335,
  81, 337,
  81, 342,
  81, 343,
  81, 347,
  81, 348,
  81, 350,
  81, 354,
  81, 357,
  81, 360,
  81, 361,
  81, 363,
  81, 366,
  81, 367,
  81, 371,
  81, 373,
  81, 374,
  81, 376,
  81, 377,
  81, 380,
  81, 382,
  81, 383,
  81, 384,
  81, 385,
  81, 387,
  81, 389,
  81, 390,
  81, 391,
  81, 392,
  81, 396,
  81, 399,
  81, 400,
  81, 405,
  81, 407,
  81, 408,
  81, 411,
  81, 413,
  81, 417,
  81, 420,
  81, 421,
  81, 422,
  81, 424,
  81, 426,
  81, 428,
  81, 436,
  81, 439,
  81, 442,
  81, 449,
  81, 451,
  81, 455,
  81, 457,
  81, 458,
  81, 459,
  81, 462,
  81, 463,
  81, 464,
  81, 465,
  81, 466,
  81, 468,
  81, 471,
  81, 473,
  81, 478,
  81, 479,
  81, 483,
  81, 485,
  81, 486,
  81, 487,
  81, 488,
  81, 490,
  81, 495,
  81, 496,
  81, 498,
  82, 83,
  82, 84,
  82, 85,
  82, 86,
  82, 87,
  82, 89,
  82, 90,
  82, 91,
  82, 92,
  82, 93,
  82, 95,
  82, 96,
  82, 98,
  82, 100,
  82, 102,
  82, 104,
  82, 105,
  82, 106,
  82, 109,
  82, 112,
  82, 113,
  82, 118,
  82, 119,
  82, 121,
  82, 123,
  82, 131,
  82, 132,
  82, 133,
  82, 134,
  82, 135,
  82, 137,
  82, 140,
  82, 143,
  82, 145,
  82, 147,
  82, 152,
  82, 154,
  82, 158,
  82, 159,
  82, 161,
  82, 165,
  82, 167,
  82, 169,
  82, 173,
  82, 176,
  82, 177,
  82, 178,
  82, 179,
  82, 180,
  82, 182,
  82, 184,
  82, 186,
  82, 192,
  82, 193,
  82, 195,
  82, 203,
  82, 206,
  82, 207,
  82, 209,
  82, 210,
  82, 214,
  82, 215,
  82, 217,
  82, 218,
  82, 220,
  82, 221,
  82, 223,
  82, 228,
  82, 230,
  82, 232,
  82, 233,
  82, 234,
  82, 236,
  82, 237,
  82, 238,
  82, 239,
  82, 241,
  82, 242,
  82, 244,
  82, 245,
  82, 247,
  82, 252,
  82, 255,
  82, 257,
  82, 259,
  82, 260,
  82, 261,
  82, 262,
  82, 267,
  82, 268,
  82, 271,
  82, 273,
  82, 274,
  82, 278,
  82, 279,
  82, 283,
  82, 284,
  82, 285,
  82, 286,
  82, 289,
  82, 290,
  82, 292,
  82, 294,
  82, 295,
  82, 296,
  82, 297,
  82, 301,
  82, 302,
  82, 303,
  82, 305,
  82, 306,
  82, 307,
  82, 308,
  82, 309,
  82, 311,
  82, 313,
  82, 314,
  82, 315,
  82, 316,
  82, 319,
  82, 320,
  82, 323,
  82, 324,
  82, 330,
  82, 332,
  82, 333,
  82, 334,
  82, 335,
  82, 336,
  82, 337,
  82, 338,
  82, 340,
  82, 341,
  82, 342,
  82, 343,
  82, 344,
  82, 345,
  82, 346,
  82, 347,
  82, 348,
  82, 352,
  82, 353,
  82, 357,
  82, 359,
  82, 364,
  82, 365,
  82, 367,
  82, 368,
  82, 369,
  82, 373,
  82, 374,
  82, 377,
  82, 379,
  82, 382,
  82, 384,
  82, 386,
  82, 387,
  82, 388,
  82, 389,
  82, 397,
  82, 399,
  82, 400,
  82, 401,
  82, 404,
  82, 405,
  82, 410,
  82, 411,
  82, 412,
  82, 413,
  82, 418,
  82, 421,
  82, 423,
  82, 424,
  82, 425,
  82, 426,
  82, 429,
  82, 430,
  82, 431,
  82, 432,
  82, 433,
  82, 434,
  82, 437,
  82, 439,
  82, 441,
  82, 442,
  82, 444,
  82, 445,
  82, 446,
  82, 449,
  82, 450,
  82, 451,
  82, 456,
  82, 458,
  82, 459,
  82, 461,
  82, 462,
  82, 465,
  82, 468,
  82, 469,
  82, 471,
  82, 472,
  82, 474,
  82, 476,
  82, 478,
  82, 479,
  82, 483,
  82, 485,
  82, 487,
  82, 488,
  82, 492,
  82, 496,
  82, 497,
  82, 498,
  82, 500,
  83, 84,
  83, 85,
  83, 86,
  83, 87,
  83, 90,
  83, 91,
  83, 92,
  83, 95,
  83, 97,
  83, 105,
  83, 106,
  83, 112,
  83, 113,
  83, 114,
  83, 124,
  83, 125,
  83, 129,
  83, 135,
  83, 136,
  83, 139,
  83, 140,
  83, 141,
  83, 142,
  83, 143,
  83, 144,
  83, 148,
  83, 149,
  83, 152,
  83, 154,
  83, 157,
  83, 158,
  83, 159,
  83, 160,
  83, 162,
  83, 163,
  83, 164,
  83, 165,
  83, 166,
  83, 170,
  83, 172,
  83, 175,
  83, 176,
  83, 177,
  83, 180,
  83, 182,
  83, 185,
  83, 187,
  83, 188,
  83, 189,
  83, 190,
  83, 192,
  83, 193,
  83, 199,
  83, 200,
  83, 202,
  83, 203,
  83, 206,
  83, 208,
  83, 209,
  83, 210,
  83, 217,
  83, 219,
  83, 220,
  83, 221,
  83, 222,
  83, 228,
  83, 229,
  83, 230,
  83, 231,
  83, 234,
  83, 236,
  83, 241,
  83, 242,
  83, 243,
  83, 244,
  83, 246,
  83, 248,
  83, 249,
  83, 250,
  83, 251,
  83, 253,
  83, 254,
  83, 257,
  83, 258,
  83, 260,
  83, 262,
  83, 263,
  83, 264,
  83, 266,
  83, 267,
  83, 268,
  83, 270,
  83, 271,
  83, 273,
  83, 274,
  83, 276,
  83, 279,
  83, 280,
  83, 284,
  83, 287,
  83, 288,
  83, 289,
  83, 291,
  83, 292,
  83, 293,
  83, 298,
  83, 300,
  83, 301,
  83, 302,
  83, 303,
  83, 304,
  83, 305,
  83, 306,
  83, 307,
  83, 308,
  83, 309,
  83, 311,
  83, 312,
  83, 313,
  83, 319,
  83, 322,
  83, 325,
  83, 328,
  83, 330,
  83, 331,
  83, 332,
  83, 333,
  83, 334,
  83, 336,
  83, 337,
  83, 339,
  83, 342,
  83, 347,
  83, 351,
  83, 352,
  83, 353,
  83, 354,
  83, 355,
  83, 356,
  83, 359,
  83, 362,
  83, 363,
  83, 364,
  83, 365,
  83, 366,
  83, 367,
  83, 368,
  83, 369,
  83, 372,
  83, 374,
  83, 375,
  83, 377,
  83, 379,
  83, 381,
  83, 382,
  83, 387,
  83, 389,
  83, 390,
  83, 393,
  83, 395,
  83, 396,
  83, 398,
  83, 400,
  83, 403,
  83, 407,
  83, 410,
  83, 412,
  83, 415,
  83, 420,
  83, 425,
  83, 426,
  83, 427,
  83, 428,
  83, 429,
  83, 430,
  83, 436,
  83, 438,
  83, 446,
  83, 447,
  83, 448,
  83, 449,
  83, 451,
  83, 453,
  83, 459,
  83, 461,
  83, 463,
  83, 464,
  83, 466,
  83, 469,
  83, 472,
  83, 478,
  83, 479,
  83, 480,
  83, 481,
  83, 483,
  83, 485,
  83, 487,
  83, 489,
  83, 490,
  83, 497,
  83, 499,
  83, 500,
  84, 85,
  84, 86,
  84, 88,
  84, 92,
  84, 96,
  84, 97,
  84, 101,
  84, 102,
  84, 103,
  84, 105,
  84, 107,
  84, 108,
  84, 109,
  84, 111,
  84, 112,
  84, 113,
  84, 114,
  84, 116,
  84, 121,
  84, 123,
  84, 124,
  84, 128,
  84, 130,
  84, 131,
  84, 132,
  84, 133,
  84, 134,
  84, 135,
  84, 137,
  84, 138,
  84, 139,
  84, 141,
  84, 142,
  84, 143,
  84, 146,
  84, 149,
  84, 150,
  84, 152,
  84, 153,
  84, 156,
  84, 157,
  84, 158,
  84, 163,
  84, 167,
  84, 168,
  84, 169,
  84, 171,
  84, 172,
  84, 173,
  84, 174,
  84, 176,
  84, 179,
  84, 180,
  84, 184,
  84, 188,
  84, 191,
  84, 195,
  84, 197,
  84, 198,
  84, 199,
  84, 202,
  84, 203,
  84, 206,
  84, 207,
  84, 208,
  84, 209,
  84, 211,
  84, 212,
  84, 213,
  84, 215,
  84, 216,
  84, 217,
  84, 219,
  84, 221,
  84, 222,
  84, 223,
  84, 225,
  84, 226,
  84, 227,
  84, 229,
  84, 231,
  84, 232,
  84, 234,
  84, 235,
  84, 236,
  84, 237,
  84, 238,
  84, 239,
  84, 240,
  84, 241,
  84, 242,
  84, 243,
  84, 246,
  84, 248,
  84, 249,
  84, 250,
  84, 254,
  84, 258,
  84, 259,
  84, 262,
  84, 263,
  84, 265,
  84, 267,
  84, 269,
  84, 272,
  84, 273,
  84, 277,
  84, 280,
  84, 281,
  84, 282,
  84, 285,
  84, 286,
  84, 287,
  84, 288,
  84, 289,
  84, 290,
  84, 291,
  84, 292,
  84, 293,
  84, 296,
  84, 298,
  84, 302,
  84, 303,
  84, 305,
  84, 307,
  84, 310,
  84, 311,
  84, 316,
  84, 320,
  84, 321,
  84, 322,
  84, 324,
  84, 328,
  84, 329,
  84, 330,
  84, 331,
  84, 334,
  84, 337,
  84, 343,
  84, 346,
  84, 347,
  84, 348,
  84, 351,
  84, 353,
  84, 355,
  84, 356,
  84, 357,
  84, 358,
  84, 360,
  84, 361,
  84, 363,
  84, 364,
  84, 365,
  84, 366,
  84, 368,
  84, 369,
  84, 374,
  84, 375,
  84, 378,
  84, 379,
  84, 382,
  84, 385,
  84, 387,
  84, 388,
  84, 392,
  84, 395,
  84, 397,
  84, 402,
  84, 404,
  84, 405,
  84, 406,
  84, 407,
  84, 408,
  84, 409,
  84, 410,
  84, 411,
  84, 417,
  84, 419,
  84, 423,
  84, 425,
  84, 426,
  84, 428,
  84, 429,
  84, 430,
  84, 431,
  84, 432,
  84, 434,
  84, 435,
  84, 436,
  84, 437,
  84, 438,
  84, 440,
  84, 441,
  84, 442,
  84, 443,
  84, 444,
  84, 445,
  84, 449,
  84, 451,
  84, 453,
  84, 455,
  84, 457,
  84, 458,
  84, 459,
  84, 460,
  84, 461,
  84, 466,
  84, 467,
  84, 468,
  84, 469,
  84, 470,
  84, 475,
  84, 476,
  84, 478,
  84, 479,
  84, 481,
  84, 485,
  84, 487,
  84, 488,
  84, 489,
  84, 490,
  84, 491,
  84, 492,
  84, 494,
  84, 495,
  84, 496,
  84, 497,
  84, 498,
  84, 499,
  84, 500,
  85, 87,
  85, 90,
  85, 92,
  85, 93,
  85, 94,
  85, 98,
  85, 100,
  85, 104,
  85, 108,
  85, 109,
  85, 110,
  85, 111,
  85, 115,
  85, 117,
  85, 121,
  85, 123,
  85, 126,
  85, 127,
  85, 129,
  85, 130,
  85, 131,
  85, 137,
  85, 142,
  85, 143,
  85, 147,
  85, 148,
  85, 151,
  85, 152,
  85, 156,
  85, 158,
  85, 164,
  85, 165,
  85, 166,
  85, 167,
  85, 168,
  85, 171,
  85, 176,
  85, 177,
  85, 178,
  85, 179,
  85, 180,
  85, 181,
  85, 185,
  85, 187,
  85, 188,
  85, 189,
  85, 194,
  85, 197,
  85, 198,
  85, 200,
  85, 202,
  85, 203,
  85, 208,
  85, 209,
  85, 210,
  85, 212,
  85, 215,
  85, 221,
  85, 227,
  85, 230,
  85, 231,
  85, 232,
  85, 234,
  85, 239,
  85, 241,
  85, 244,
  85, 247,
  85, 248,
  85, 249,
  85, 252,
  85, 260,
  85, 261,
  85, 262,
  85, 264,
  85, 265,
  85, 267,
  85, 268,
  85, 273,
  85, 274,
  85, 275,
  85, 279,
  85, 280,
  85, 281,
  85, 283,
  85, 284,
  85, 285,
  85, 287,
  85, 289,
  85, 292,
  85, 293,
  85, 294,
  85, 295,
  85, 298,
  85, 299,
  85, 300,
  85, 302,
  85, 304,
  85, 305,
  85, 306,
  85, 308,
  85, 311,
  85, 312,
  85, 314,
  85, 315,
  85, 316,
  85, 317,
  85, 320,
  85, 322,
  85, 323,
  85, 324,
  85, 325,
  85, 327,
  85, 329,
  85, 330,
  85, 333,
  85, 336,
  85, 340,
  85, 342,
  85, 345,
  85, 348,
  85, 350,
  85, 351,
  85, 352,
  85, 353,
  85, 356,
  85, 357,
  85, 360,
  85, 362,
  85, 363,
  85, 365,
  85, 367,
  85, 371,
  85, 372,
  85, 375,
  85, 377,
  85, 381,
  85, 382,
  85, 384,
  85, 386,
  85, 388,
  85, 391,
  85, 394,
  85, 396,
  85, 397,
  85, 399,
  85, 400,
  85, 401,
  85, 402,
  85, 403,
  85, 404,
  85, 407,
  85, 409,
  85, 411,
  85, 414,
  85, 417,
  85, 418,
  85, 419,
  85, 420,
  85, 422,
  85, 425,
  85, 426,
  85, 428,
  85, 435,
  85, 436,
  85, 437,
  85, 439,
  85, 445,
  85, 446,
  85, 454,
  85, 455,
  85, 456,
  85, 458,
  85, 459,
  85, 460,
  85, 465,
  85, 467,
  85, 470,
  85, 471,
  85, 474,
  85, 479,
  85, 480,
  85, 482,
  85, 483,
  85, 485,
  85, 487,
  85, 490,
  85, 491,
  85, 493,
  85, 495,
  85, 499,
  85, 500,
  86, 87,
  86, 89,
  86, 91,
  86, 96,
  86, 97,
  86, 100,
  86, 103,
  86, 108,
  86, 109,
  86, 111,
  86, 112,
  86, 116,
  86, 119,
  86, 120,
  86, 121,
  86, 123,
  86, 124,
  86, 125,
  86, 128,
  86, 132,
  86, 135,
  86, 137,
  86, 140,
  86, 145,
  86, 148,
  86, 149,
  86, 150,
  86, 152,
  86, 154,
  86, 160,
  86, 161,
  86, 164,
  86, 165,
  86, 168,
  86, 172,
  86, 175,
  86, 177,
  86, 179,
  86, 181,
  86, 183,
  86, 184,
  86, 185,
  86, 188,
  86, 189,
  86, 190,
  86, 191,
  86, 192,
  86, 193,
  86, 195,
  86, 196,
  86, 198,
  86, 200,
  86, 203,
  86, 205,
  86, 206,
  86, 207,
  86, 208,
  86, 213,
  86, 214,
  86, 217,
  86, 219,
  86, 220,
  86, 221,
  86, 223,
  86, 225,
  86, 226,
  86, 229,
  86, 230,
  86, 232,
  86, 234,
  86, 235,
  86, 236,
  86, 237,
  86, 239,
  86, 240,
  86, 244,
  86, 246,
  86, 248,
  86, 249,
  86, 250,
  86, 251,
  86, 252,
  86, 253,
  86, 255,
  86, 258,
  86, 259,
  86, 260,
  86, 263,
  86, 269,
  86, 272,
  86, 273,
  86, 277,
  86, 278,
  86, 280,
  86, 283,
  86, 284,
  86, 285,
  86, 286,
  86, 287,
  86, 288,
  86, 291,
  86, 294,
  86, 295,
  86, 296,
  86, 298,
  86, 299,
  86, 300,
  86, 302,
  86, 303,
  86, 304,
  86, 307,
  86, 309,
  86, 310,
  86, 315,
  86, 319,
  86, 320,
  86, 328,
  86, 330,
  86, 331,
  86, 333,
  86, 334,
  86, 338,
  86, 339,
  86, 340,
  86, 346,
  86, 347,
  86, 351,
  86, 353,
  86, 355,
  86, 356,
  86, 362,
  86, 365,
  86, 367,
  86, 370,
  86, 371,
  86, 374,
  86, 375,
  86, 376,
  86, 379,
  86, 385,
  86, 387,
  86, 388,
  86, 389,
  86, 390,
  86, 391,
  86, 394,
  86, 395,
  86, 399,
  86, 400,
  86, 401,
  86, 404,
  86, 406,
  86, 408,
  86, 412,
  86, 413,
  86, 416,
  86, 419,
  86, 420,
  86, 421,
  86, 423,
  86, 425,
  86, 426,
  86, 427,
  86, 428,
  86, 431,
  86, 432,
  86, 433,
  86, 435,
  86, 439,
  86, 440,
  86, 441,
  86, 442,
  86, 443,
  86, 444,
  86, 446,
  86, 447,
  86, 449,
  86, 451,
  86, 454,
  86, 455,
  86, 457,
  86, 460,
  86, 461,
  86, 462,
  86, 467,
  86, 470,
  86, 474,
  86, 475,
  86, 476,
  86, 477,
  86, 478,
  86, 480,
  86, 482,
  86, 483,
  86, 486,
  86, 487,
  86, 489,
  86, 493,
  86, 494,
  86, 495,
  86, 497,
  87, 88,
  87, 90,
  87, 91,
  87, 92,
  87, 94,
  87, 97,
  87, 99,
  87, 100,
  87, 103,
  87, 105,
  87, 106,
  87, 107,
  87, 108,
  87, 110,
  87, 113,
  87, 114,
  87, 117,
  87, 118,
  87, 119,
  87, 120,
  87, 123,
  87, 124,
  87, 125,
  87, 127,
  87, 128,
  87, 130,
  87, 133,
  87, 134,
  87, 136,
  87, 142,
  87, 145,
  87, 146,
  87, 149,
  87, 152,
  87, 153,
  87, 154,
  87, 155,
  87, 157,
  87, 158,
  87, 161,
  87, 162,
  87, 165,
  87, 166,
  87, 168,
  87, 169,
  87, 172,
  87, 177,
  87, 181,
  87, 186,
  87, 187,
  87, 188,
  87, 189,
  87, 190,
  87, 192,
  87, 193,
  87, 194,
  87, 195,
  87, 200,
  87, 201,
  87, 204,
  87, 206,
  87, 207,
  87, 208,
  87, 211,
  87, 213,
  87, 214,
  87, 215,
  87, 216,
  87, 217,
  87, 218,
  87, 219,
  87, 220,
  87, 221,
  87, 222,
  87, 224,
  87, 225,
  87, 227,
  87, 228,
  87, 230,
  87, 234,
  87, 235,
  87, 236,
  87, 238,
  87, 241,
  87, 243,
  87, 244,
  87, 245,
  87, 246,
  87, 248,
  87, 252,
  87, 256,
  87, 257,
  87, 261,
  87, 262,
  87, 266,
  87, 268,
  87, 270,
  87, 272,
  87, 273,
  87, 276,
  87, 277,
  87, 280,
  87, 281,
  87, 284,
  87, 285,
  87, 290,
  87, 291,
  87, 292,
  87, 293,
  87, 295,
  87, 296,
  87, 297,
  87, 299,
  87, 300,
  87, 301,
  87, 304,
  87, 305,
  87, 306,
  87, 308,
  87, 316,
  87, 317,
  87, 319,
  87, 320,
  87, 321,
  87, 323,
  87, 324,
  87, 326,
  87, 334,
  87, 335,
  87, 336,
  87, 339,
  87, 340,
  87, 341,
  87, 344,
  87, 347,
  87, 348,
  87, 350,
  87, 354,
  87, 357,
  87, 359,
  87, 360,
  87, 361,
  87, 363,
  87, 365,
  87, 370,
  87, 371,
  87, 372,
  87, 376,
  87, 377,
  87, 381,
  87, 385,
  87, 387,
  87, 388,
  87, 389,
  87, 391,
  87, 396,
  87, 397,
  87, 399,
  87, 401,
  87, 406,
  87, 411,
  87, 412,
  87, 413,
  87, 417,
  87, 421,
  87, 423,
  87, 427,
  87, 429,
  87, 430,
  87, 432,
  87, 435,
  87, 436,
  87, 437,
  87, 438,
  87, 441,
  87, 442,
  87, 443,
  87, 446,
  87, 447,
  87, 448,
  87, 455,
  87, 457,
  87, 459,
  87, 460,
  87, 461,
  87, 463,
  87, 464,
  87, 466,
  87, 468,
  87, 470,
  87, 471,
  87, 472,
  87, 473,
  87, 475,
  87, 476,
  87, 481,
  87, 483,
  87, 486,
  87, 487,
  87, 488,
  87, 489,
  87, 491,
  87, 493,
  87, 499,
  87, 500,
  88, 91,
  88, 94,
  88, 97,
  88, 98,
  88, 99,
  88, 102,
  88, 103,
  88, 104,
  88, 105,
  88, 107,
  88, 108,
  88, 111,
  88, 113,
  88, 116,
  88, 118,
  88, 119,
  88, 121,
  88, 124,
  88, 125,
  88, 128,
  88, 129,
  88, 130,
  88, 131,
  88, 134,
  88, 135,
  88, 138,
  88, 139,
  88, 140,
  88, 141,
  88, 145,
  88, 148,
  88, 149,
  88, 150,
  88, 152,
  88, 153,
  88, 156,
  88, 158,
  88, 161,
  88, 162,
  88, 163,
  88, 165,
  88, 166,
  88, 167,
  88, 170,
  88, 172,
  88, 173,
  88, 177,
  88, 179,
  88, 181,
  88, 182,
  88, 183,
  88, 184,
  88, 185,
  88, 186,
  88, 187,
  88, 188,
  88, 189,
  88, 195,
  88, 196,
  88, 198,
  88, 200,
  88, 201,
  88, 202,
  88, 204,
  88, 205,
  88, 206,
  88, 208,
  88, 209,
  88, 211,
  88, 212,
  88, 214,
  88, 215,
  88, 217,
  88, 218,
  88, 219,
  88, 220,
  88, 222,
  88, 223,
  88, 224,
  88, 227,
  88, 229,
  88, 231,
  88, 232,
  88, 234,
  88, 236,
  88, 237,
  88, 240,
  88, 241,
  88, 243,
  88, 244,
  88, 245,
  88, 249,
  88, 250,
  88, 252,
  88, 254,
  88, 258,
  88, 262,
  88, 264,
  88, 265,
  88, 267,
  88, 268,
  88, 270,
  88, 272,
  88, 273,
  88, 274,
  88, 276,
  88, 278,
  88, 279,
  88, 282,
  88, 284,
  88, 285,
  88, 286,
  88, 288,
  88, 291,
  88, 292,
  88, 293,
  88, 294,
  88, 296,
  88, 298,
  88, 299,
  88, 300,
  88, 301,
  88, 302,
  88, 303,
  88, 312,
  88, 317,
  88, 318,
  88, 319,
  88, 321,
  88, 325,
  88, 328,
  88, 330,
  88, 335,
  88, 337,
  88, 340,
  88, 342,
  88, 343,
  88, 348,
  88, 350,
  88, 351,
  88, 352,
  88, 354,
  88, 355,
  88, 359,
  88, 361,
  88, 362,
  88, 363,
  88, 364,
  88, 369,
  88, 371,
  88, 373,
  88, 377,
  88, 378,
  88, 379,
  88, 380,
  88, 383,
  88, 384,
  88, 385,
  88, 387,
  88, 389,
  88, 392,
  88, 396,
  88, 400,
  88, 402,
  88, 404,
  88, 405,
  88, 406,
  88, 408,
  88, 410,
  88, 412,
  88, 416,
  88, 417,
  88, 418,
  88, 419,
  88, 421,
  88, 422,
  88, 424,
  88, 425,
  88, 427,
  88, 428,
  88, 429,
  88, 430,
  88, 432,
  88, 434,
  88, 435,
  88, 436,
  88, 437,
  88, 439,
  88, 440,
  88, 442,
  88, 445,
  88, 449,
  88, 451,
  88, 452,
  88, 453,
  88, 455,
  88, 457,
  88, 458,
  88, 459,
  88, 461,
  88, 462,
  88, 464,
  88, 466,
  88, 467,
  88, 472,
  88, 473,
  88, 474,
  88, 475,
  88, 480,
  88, 481,
  88, 482,
  88, 483,
  88, 485,
  88, 491,
  88, 492,
  88, 493,
  88, 494,
  88, 495,
  88, 496,
  89, 94,
  89, 98,
  89, 99,
  89, 100,
  89, 101,
  89, 103,
  89, 105,
  89, 108,
  89, 109,
  89, 110,
  89, 113,
  89, 114,
  89, 118,
  89, 119,
  89, 120,
  89, 122,
  89, 123,
  89, 124,
  89, 125,
  89, 127,
  89, 128,
  89, 134,
  89, 136,
  89, 138,
  89, 140,
  89, 144,
  89, 146,
  89, 148,
  89, 149,
  89, 150,
  89, 151,
  89, 153,
  89, 155,
  89, 159,
  89, 163,
  89, 164,
  89, 165,
  89, 166,
  89, 167,
  89, 168,
  89, 170,
  89, 172,
  89, 174,
  89, 175,
  89, 177,
  89, 178,
  89, 181,
  89, 182,
  89, 188,
  89, 191,
  89, 192,
  89, 195,
  89, 196,
  89, 197,
  89, 201,
  89, 203,
  89, 205,
  89, 207,
  89, 210,
  89, 211,
  89, 212,
  89, 213,
  89, 214,
  89, 218,
  89, 219,
  89, 220,
  89, 222,
  89, 225,
  89, 227,
  89, 228,
  89, 232,
  89, 234,
  89, 242,
  89, 243,
  89, 244,
  89, 247,
  89, 249,
  89, 255,
  89, 256,
  89, 257,
  89, 258,
  89, 259,
  89, 260,
  89, 262,
  89, 263,
  89, 267,
  89, 268,
  89, 271,
  89, 278,
  89, 280,
  89, 282,
  89, 283,
  89, 284,
  89, 285,
  89, 287,
  89, 290,
  89, 292,
  89, 294,
  89, 295,
  89, 296,
  89, 297,
  89, 299,
  89, 301,
  89, 302,
  89, 304,
  89, 307,
  89, 308,
  89, 311,
  89, 312,
  89, 313,
  89, 316,
  89, 317,
  89, 318,
  89, 322,
  89, 323,
  89, 326,
  89, 327,
  89, 328,
  89, 330,
  89, 332,
  89, 333,
  89, 334,
  89, 335,
  89, 336,
  89, 338,
  89, 339,
  89, 341,
  89, 342,
  89, 343,
  89, 346,
  89, 347,
  89, 349,
  89, 350,
  89, 351,
  89, 352,
  89, 355,
  89, 357,
  89, 358,
  89, 359,
  89, 361,
  89, 362,
  89, 363,
  89, 364,
  89, 365,
  89, 366,
  89, 370,
  89, 371,
  89, 372,
  89, 373,
  89, 376,
  89, 379,
  89, 380,
  89, 382,
  89, 383,
  89, 385,
  89, 386,
  89, 389,
  89, 390,
  89, 395,
  89, 397,
  89, 398,
  89, 399,
  89, 400,
  89, 403,
  89, 408,
  89, 410,
  89, 411,
  89, 412,
  89, 416,
  89, 419,
  89, 426,
  89, 427,
  89, 428,
  89, 429,
  89, 431,
  89, 432,
  89, 434,
  89, 437,
  89, 439,
  89, 444,
  89, 448,
  89, 450,
  89, 451,
  89, 452,
  89, 453,
  89, 454,
  89, 455,
  89, 460,
  89, 464,
  89, 465,
  89, 468,
  89, 469,
  89, 470,
  89, 472,
  89, 473,
  89, 474,
  89, 476,
  89, 477,
  89, 484,
  89, 491,
  89, 492,
  89, 493,
  89, 494,
  89, 496,
  89, 500,
  90, 94,
  90, 96,
  90, 97,
  90, 100,
  90, 103,
  90, 104,
  90, 106,
  90, 107,
  90, 109,
  90, 111,
  90, 112,
  90, 114,
  90, 115,
  90, 116,
  90, 117,
  90, 118,
  90, 119,
  90, 121,
  90, 128,
  90, 131,
  90, 132,
  90, 134,
  90, 135,
  90, 139,
  90, 148,
  90, 149,
  90, 150,
  90, 155,
  90, 158,
  90, 159,
  90, 160,
  90, 164,
  90, 165,
  90, 167,
  90, 169,
  90, 171,
  90, 172,
  90, 173,
  90, 174,
  90, 177,
  90, 179,
  90, 180,
  90, 181,
  90, 183,
  90, 186,
  90, 187,
  90, 192,
  90, 193,
  90, 194,
  90, 199,
  90, 202,
  90, 203,
  90, 204,
  90, 207,
  90, 212,
  90, 213,
  90, 214,
  90, 215,
  90, 218,
  90, 220,
  90, 222,
  90, 223,
  90, 224,
  90, 225,
  90, 227,
  90, 238,
  90, 239,
  90, 240,
  90, 241,
  90, 242,
  90, 244,
  90, 246,
  90, 247,
  90, 249,
  90, 250,
  90, 254,
  90, 255,
  90, 256,
  90, 257,
  90, 259,
  90, 265,
  90, 266,
  90, 268,
  90, 270,
  90, 273,
  90, 278,
  90, 281,
  90, 283,
  90, 284,
  90, 285,
  90, 286,
  90, 287,
  90, 289,
  90, 290,
  90, 293,
  90, 294,
  90, 295,
  90, 298,
  90, 301,
  90, 304,
  90, 307,
  90, 308,
  90, 309,
  90, 311,
  90, 313,
  90, 314,
  90, 316,
  90, 318,
  90, 319,
  90, 320,
  90, 322,
  90, 324,
  90, 325,
  90, 326,
  90, 328,
  90, 330,
  90, 335,
  90, 336,
  90, 339,
  90, 340,
  90, 341,
  90, 342,
  90, 343,
  90, 345,
  90, 348,
  90, 352,
  90, 353,
  90, 354,
  90, 356,
  90, 357,
  90, 358,
  90, 360,
  90, 361,
  90, 362,
  90, 364,
  90, 365,
  90, 367,
  90, 368,
  90, 373,
  90, 375,
  90, 376,
  90, 378,
  90, 379,
  90, 380,
  90, 382,
  90, 387,
  90, 391,
  90, 392,
  90, 395,
  90, 396,
  90, 397,
  90, 398,
  90, 399,
  90, 400,
  90, 401,
  90, 403,
  90, 404,
  90, 405,
  90, 412,
  90, 414,
  90, 415,
  90, 417,
  90, 418,
  90, 422,
  90, 423,
  90, 424,
  90, 425,
  90, 426,
  90, 427,
  90, 428,
  90, 429,
  90, 430,
  90, 431,
  90, 433,
  90, 435,
  90, 437,
  90, 438,
  90, 445,
  90, 447,
  90, 448,
  90, 449,
  90, 450,
  90, 451,
  90, 454,
  90, 457,
  90, 458,
  90, 460,
  90, 461,
  90, 466,
  90, 467,
  90, 468,
  90, 470,
  90, 471,
  90, 473,
  90, 476,
  90, 478,
  90, 479,
  90, 485,
  90, 493,
  90, 496,
  90, 497,
  90, 498,
  91, 92,
  91, 93,
  91, 97,
  91, 103,
  91, 104,
  91, 105,
  91, 106,
  91, 108,
  91, 109,
  91, 111,
  91, 112,
  91, 113,
  91, 120,
  91, 121,
  91, 122,
  91, 125,
  91, 130,
  91, 133,
  91, 136,
  91, 137,
  91, 138,
  91, 139,
  91, 140,
  91, 141,
  91, 142,
  91, 143,
  91, 145,
  91, 148,
  91, 150,
  91, 152,
  91, 155,
  91, 157,
  91, 159,
  91, 160,
  91, 161,
  91, 164,
  91, 165,
  91, 171,
  91, 172,
  91, 173,
  91, 175,
  91, 176,
  91, 179,
  91, 185,
  91, 189,
  91, 190,
  91, 192,
  91, 196,
  91, 200,
  91, 201,
  91, 205,
  91, 206,
  91, 207,
  91, 209,
  91, 211,
  91, 213,
  91, 214,
  91, 216,
  91, 222,
  91, 227,
  91, 230,
  91, 232,
  91, 234,
  91, 235,
  91, 236,
  91, 238,
  91, 239,
  91, 245,
  91, 247,
  91, 248,
  91, 253,
  91, 254,
  91, 258,
  91, 260,
  91, 261,
  91, 262,
  91, 263,
  91, 265,
  91, 268,
  91, 269,
  91, 272,
  91, 273,
  91, 274,
  91, 275,
  91, 276,
  91, 278,
  91, 280,
  91, 281,
  91, 282,
  91, 283,
  91, 286,
  91, 289,
  91, 291,
  91, 293,
  91, 296,
  91, 297,
  91, 298,
  91, 301,
  91, 302,
  91, 303,
  91, 307,
  91, 310,
  91, 311,
  91, 318,
  91, 319,
  91, 320,
  91, 321,
  91, 322,
  91, 324,
  91, 327,
  91, 328,
  91, 330,
  91, 333,
  91, 335,
  91, 337,
  91, 338,
  91, 339,
  91, 341,
  91, 342,
  91, 343,
  91, 346,
  91, 347,
  91, 356,
  91, 357,
  91, 358,
  91, 359,
  91, 360,
  91, 361,
  91, 364,
  91, 369,
  91, 371,
  91, 376,
  91, 377,
  91, 380,
  91, 383,
  91, 384,
  91, 390,
  91, 391,
  91, 392,
  91, 394,
  91, 395,
  91, 397,
  91, 398,
  91, 399,
  91, 400,
  91, 402,
  91, 404,
  91, 406,
  91, 407,
  91, 410,
  91, 413,
  91, 414,
  91, 420,
  91, 422,
  91, 423,
  91, 424,
  91, 425,
  91, 427,
  91, 429,
  91, 434,
  91, 435,
  91, 437,
  91, 438,
  91, 441,
  91, 442,
  91, 443,
  91, 444,
  91, 447,
  91, 450,
  91, 452,
  91, 455,
  91, 458,
  91, 459,
  91, 461,
  91, 462,
  91, 464,
  91, 465,
  91, 466,
  91, 467,
  91, 468,
  91, 469,
  91, 470,
  91, 471,
  91, 472,
  91, 477,
  91, 481,
  91, 482,
  91, 483,
  91, 484,
  91, 485,
  91, 486,
  91, 488,
  91, 494,
  91, 497,
  91, 500,
  92, 95,
  92, 97,
  92, 101,
  92, 105,
  92, 109,
  92, 111,
  92, 113,
  92, 115,
  92, 116,
  92, 118,
  92, 120,
  92, 122,
  92, 123,
  92, 124,
  92, 127,
  92, 129,
  92, 132,
  92, 133,
  92, 134,
  92, 135,
  92, 137,
  92, 140,
  92, 141,
  92, 143,
  92, 144,
  92, 146,
  92, 147,
  92, 150,
  92, 151,
  92, 152,
  92, 153,
  92, 155,
  92, 157,
  92, 158,
  92, 159,
  92, 160,
  92, 161,
  92, 162,
  92, 163,
  92, 164,
  92, 165,
  92, 170,
  92, 173,
  92, 174,
  92, 175,
  92, 176,
  92, 177,
  92, 181,
  92, 187,
  92, 188,
  92, 191,
  92, 192,
  92, 193,
  92, 195,
  92, 197,
  92, 199,
  92, 202,
  92, 203,
  92, 205,
  92, 206,
  92, 207,
  92, 210,
  92, 213,
  92, 215,
  92, 216,
  92, 218,
  92, 222,
  92, 223,
  92, 225,
  92, 226,
  92, 228,
  92, 233,
  92, 235,
  92, 240,
  92, 242,
  92, 243,
  92, 245,
  92, 249,
  92, 251,
  92, 252,
  92, 257,
  92, 262,
  92, 263,
  92, 267,
  92, 268,
  92, 270,
  92, 274,
  92, 275,
  92, 277,
  92, 278,
  92, 281,
  92, 284,
  92, 287,
  92, 288,
  92, 290,
  92, 293,
  92, 295,
  92, 296,
  92, 301,
  92, 305,
  92, 309,
  92, 311,
  92, 313,
  92, 315,
  92, 317,
  92, 318,
  92, 319,
  92, 321,
  92, 322,
  92, 323,
  92, 326,
  92, 330,
  92, 335,
  92, 341,
  92, 342,
  92, 343,
  92, 345,
  92, 346,
  92, 348,
  92, 351,
  92, 352,
  92, 354,
  92, 355,
  92, 357,
  92, 359,
  92, 360,
  92, 361,
  92, 364,
  92, 366,
  92, 369,
  92, 370,
  92, 371,
  92, 372,
  92, 373,
  92, 374,
  92, 376,
  92, 377,
  92, 378,
  92, 381,
  92, 387,
  92, 388,
  92, 390,
  92, 392,
  92, 395,
  92, 396,
  92, 397,
  92, 399,
  92, 402,
  92, 403,
  92, 406,
  92, 408,
  92, 411,
  92, 415,
  92, 419,
  92, 420,
  92, 421,
  92, 424,
  92, 426,
  92, 434,
  92, 436,
  92, 439,
  92, 441,
  92, 445,
  92, 446,
  92, 447,
  92, 449,
  92, 450,
  92, 452,
  92, 456,
  92, 457,
  92, 461,
  92, 466,
  92, 474,
  92, 476,
  92, 478,
  92, 479,
  92, 481,
  92, 482,
  92, 484,
  92, 485,
  92, 487,
  92, 488,
  92, 489,
  92, 491,
  92, 494,
  92, 495,
  92, 497,
  93, 95,
  93, 96,
  93, 97,
  93, 101,
  93, 102,
  93, 103,
  93, 105,
  93, 106,
  93, 108,
  93, 109,
  93, 112,
  93, 113,
  93, 117,
  93, 118,
  93, 120,
  93, 125,
  93, 127,
  93, 128,
  93, 131,
  93, 133,
  93, 135,
  93, 137,
  93, 142,
  93, 143,
  93, 145,
  93, 146,
  93, 152,
  93, 154,
  93, 158,
  93, 160,
  93, 163,
  93, 165,
  93, 166,
  93, 167,
  93, 171,
  93, 174,
  93, 175,
  93, 177,
  93, 180,
  93, 184,
  93, 185,
  93, 187,
  93, 188,
  93, 189,
  93, 190,
  93, 191,
  93, 194,
  93, 197,
  93, 198,
  93, 200,
  93, 204,
  93, 205,
  93, 207,
  93, 209,
  93, 211,
  93, 215,
  93, 217,
  93, 218,
  93, 219,
  93, 221,
  93, 223,
  93, 225,
  93, 226,
  93, 227,
  93, 228,
  93, 229,
  93, 230,
  93, 231,
  93, 232,
  93, 234,
  93, 238,
  93, 241,
  93, 244,
  93, 247,
  93, 249,
  93, 252,
  93, 254,
  93, 257,
  93, 258,
  93, 263,
  93, 268,
  93, 271,
  93, 272,
  93, 274,
  93, 275,
  93, 279,
  93, 283,
  93, 285,
  93, 292,
  93, 297,
  93, 298,
  93, 300,
  93, 301,
  93, 302,
  93, 303,
  93, 306,
  93, 309,
  93, 310,
  93, 311,
  93, 312,
  93, 314,
  93, 316,
  93, 317,
  93, 318,
  93, 321,
  93, 325,
  93, 326,
  93, 327,
  93, 329,
  93, 330,
  93, 331,
  93, 333,
  93, 334,
  93, 335,
  93, 337,
  93, 338,
  93, 340,
  93, 344,
  93, 348,
  93, 349,
  93, 352,
  93, 354,
  93, 356,
  93, 360,
  93, 361,
  93, 362,
  93, 363,
  93, 365,
  93, 366,
  93, 369,
  93, 373,
  93, 374,
  93, 380,
  93, 384,
  93, 386,
  93, 388,
  93, 389,
  93, 390,
  93, 392,
  93, 394,
  93, 395,
  93, 400,
  93, 401,
  93, 404,
  93, 407,
  93, 409,
  93, 411,
  93, 415,
  93, 417,
  93, 419,
  93, 420,
  93, 424,
  93, 425,
  93, 427,
  93, 429,
  93, 431,
  93, 432,
  93, 434,
  93, 435,
  93, 442,
  93, 443,
  93, 445,
  93, 446,
  93, 449,
  93, 450,
  93, 453,
  93, 455,
  93, 456,
  93, 463,
  93, 464,
  93, 465,
  93, 466,
  93, 469,
  93, 474,
  93, 475,
  93, 476,
  93, 478,
  93, 479,
  93, 480,
  93, 490,
  93, 492,
  93, 493,
  93, 495,
  93, 497,
  94, 95,
  94, 97,
  94, 98,
  94, 103,
  94, 105,
  94, 106,
  94, 109,
  94, 111,
  94, 113,
  94, 115,
  94, 116,
  94, 117,
  94, 118,
  94, 120,
  94, 124,
  94, 125,
  94, 126,
  94, 129,
  94, 130,
  94, 131,
  94, 132,
  94, 133,
  94, 134,
  94, 135,
  94, 137,
  94, 138,
  94, 139,
  94, 141,
  94, 143,
  94, 144,
  94, 145,
  94, 147,
  94, 148,
  94, 149,
  94, 151,
  94, 152,
  94, 153,
  94, 156,
  94, 157,
  94, 159,
  94, 161,
  94, 163,
  94, 164,
  94, 166,
  94, 170,
  94, 172,
  94, 173,
  94, 175,
  94, 176,
  94, 180,
  94, 185,
  94, 186,
  94, 188,
  94, 189,
  94, 190,
  94, 192,
  94, 193,
  94, 195,
  94, 199,
  94, 201,
  94, 202,
  94, 204,
  94, 208,
  94, 212,
  94, 213,
  94, 214,
  94, 215,
  94, 216,
  94, 218,
  94, 220,
  94, 222,
  94, 225,
  94, 226,
  94, 227,
  94, 229,
  94, 230,
  94, 231,
  94, 234,
  94, 236,
  94, 237,
  94, 238,
  94, 239,
  94, 240,
  94, 242,
  94, 243,
  94, 244,
  94, 246,
  94, 258,
  94, 260,
  94, 262,
  94, 268,
  94, 270,
  94, 273,
  94, 277,
  94, 278,
  94, 280,
  94, 284,
  94, 286,
  94, 288,
  94, 291,
  94, 296,
  94, 298,
  94, 299,
  94, 305,
  94, 306,
  94, 310,
  94, 311,
  94, 313,
  94, 315,
  94, 318,
  94, 319,
  94, 322,
  94, 323,
  94, 326,
  94, 327,
  94, 328,
  94, 331,
  94, 332,
  94, 334,
  94, 335,
  94, 336,
  94, 337,
  94, 339,
  94, 340,
  94, 341,
  94, 346,
  94, 347,
  94, 348,
  94, 350,
  94, 352,
  94, 356,
  94, 358,
  94, 360,
  94, 361,
  94, 367,
  94, 368,
  94, 369,
  94, 370,
  94, 371,
  94, 373,
  94, 377,
  94, 378,
  94, 380,
  94, 382,
  94, 385,
  94, 388,
  94, 390,
  94, 391,
  94, 392,
  94, 393,
  94, 395,
  94, 400,
  94, 401,
  94, 402,
  94, 404,
  94, 408,
  94, 409,
  94, 410,
  94, 411,
  94, 412,
  94, 415,
  94, 419,
  94, 421,
  94, 425,
  94, 426,
  94, 429,
  94, 432,
  94, 435,
  94, 436,
  94, 437,
  94, 440,
  94, 441,
  94, 444,
  94, 446,
  94, 449,
  94, 451,
  94, 452,
  94, 453,
  94, 454,
  94, 455,
  94, 458,
  94, 459,
  94, 461,
  94, 462,
  94, 465,
  94, 466,
  94, 467,
  94, 469,
  94, 470,
  94, 472,
  94, 478,
  94, 479,
  94, 481,
  94, 482,
  94, 484,
  94, 487,
  94, 488,
  94, 489,
  94, 493,
  94, 498,
  94, 500,
  95, 96,
  95, 97,
  95, 98,
  95, 101,
  95, 102,
  95, 104,
  95, 105,
  95, 108,
  95, 110,
  95, 112,
  95, 114,
  95, 119,
  95, 122,
  95, 124,
  95, 128,
  95, 129,
  95, 137,
  95, 141,
  95, 142,
  95, 144,
  95, 146,
  95, 150,
  95, 151,
  95, 152,
  95, 153,
  95, 156,
  95, 162,
  95, 164,
  95, 165,
  95, 166,
  95, 167,
  95, 170,
  95, 173,
  95, 174,
  95, 175,
  95, 178,
  95, 180,
  95, 181,
  95, 182,
  95, 184,
  95, 185,
  95, 186,
  95, 190,
  95, 192,
  95, 194,
  95, 195,
  95, 196,
  95, 197,
  95, 198,
  95, 201,
  95, 203,
  95, 206,
  95, 207,
  95, 208,
  95, 209,
  95, 211,
  95, 212,
  95, 214,
  95, 216,
  95, 218,
  95, 219,
  95, 221,
  95, 222,
  95, 224,
  95, 225,
  95, 230,
  95, 231,
  95, 232,
  95, 234,
  95, 235,
  95, 237,
  95, 243,
  95, 245,
  95, 257,
  95, 266,
  95, 269,
  95, 272,
  95, 273,
  95, 277,
  95, 278,
  95, 280,
  95, 282,
  95, 283,
  95, 288,
  95, 290,
  95, 291,
  95, 293,
  95, 294,
  95, 296,
  95, 297,
  95, 298,
  95, 299,
  95, 301,
  95, 302,
  95, 303,
  95, 306,
  95, 309,
  95, 312,
  95, 313,
  95, 314,
  95, 315,
  95, 317,
  95, 318,
  95, 320,
  95, 323,
  95, 324,
  95, 325,
  95, 326,
  95, 327,
  95, 328,
  95, 330,
  95, 335,
  95, 336,
  95, 337,
  95, 341,
  95, 342,
  95, 344,
  95, 345,
  95, 347,
  95, 348,
  95, 350,
  95, 352,
  95, 353,
  95, 354,
  95, 356,
  95, 359,
  95, 361,
  95, 363,
  95, 367,
  95, 368,
  95, 369,
  95, 371,
  95, 372,
  95, 374,
  95, 376,
  95, 378,
  95, 379,
  95, 380,
  95, 381,
  95, 382,
  95, 385,
  95, 386,
  95, 388,
  95, 392,
  95, 393,
  95, 396,
  95, 398,
  95, 399,
  95, 402,
  95, 404,
  95, 408,
  95, 409,
  95, 410,
  95, 413,
  95, 419,
  95, 423,
  95, 424,
  95, 425,
  95, 426,
  95, 432,
  95, 433,
  95, 434,
  95, 435,
  95, 437,
  95, 439,
  95, 444,
  95, 448,
  95, 449,
  95, 451,
  95, 452,
  95, 453,
  95, 454,
  95, 459,
  95, 460,
  95, 462,
  95, 466,
  95, 467,
  95, 472,
  95, 477,
  95, 479,
  95, 480,
  95, 481,
  95, 483,
  95, 485,
  95, 487,
  95, 489,
  95, 490,
  95, 492,
  95, 493,
  95, 495,
  95, 497,
  95, 498,
  96, 99,
  96, 101,
  96, 109,
  96, 112,
  96, 120,
  96, 124,
  96, 125,
  96, 128,
  96, 129,
  96, 134,
  96, 135,
  96, 136,
  96, 140,
  96, 147,
  96, 149,
  96, 152,
  96, 153,
  96, 154,
  96, 155,
  96, 156,
  96, 158,
  96, 165,
  96, 167,
  96, 170,
  96, 173,
  96, 174,
  96, 175,
  96, 176,
  96, 182,
  96, 186,
  96, 187,
  96, 188,
  96, 191,
  96, 192,
  96, 193,
  96, 195,
  96, 196,
  96, 197,
  96, 198,
  96, 199,
  96, 200,
  96, 201,
  96, 202,
  96, 203,
  96, 208,
  96, 213,
  96, 215,
  96, 216,
  96, 217,
  96, 220,
  96, 223,
  96, 224,
  96, 226,
  96, 227,
  96, 230,
  96, 231,
  96, 232,
  96, 234,
  96, 237,
  96, 239,
  96, 240,
  96, 241,
  96, 243,
  96, 245,
  96, 246,
  96, 247,
  96, 248,
  96, 249,
  96, 252,
  96, 253,
  96, 254,
  96, 255,
  96, 256,
  96, 259,
  96, 260,
  96, 261,
  96, 265,
  96, 266,
  96, 267,
  96, 268,
  96, 270,
  96, 273,
  96, 276,
  96, 277,
  96, 280,
  96, 281,
  96, 282,
  96, 283,
  96, 285,
  96, 287,
  96, 289,
  96, 290,
  96, 291,
  96, 296,
  96, 298,
  96, 302,
  96, 304,
  96, 305,
  96, 306,
  96, 307,
  96, 309,
  96, 311,
  96, 313,
  96, 316,
  96, 317,
  96, 319,
  96, 321,
  96, 322,
  96, 325,
  96, 326,
  96, 328,
  96, 330,
  96, 335,
  96, 336,
  96, 339,
  96, 343,
  96, 346,
  96, 347,
  96, 351,
  96, 353,
  96, 355,
  96, 357,
  96, 358,
  96, 360,
  96, 361,
  96, 363,
  96, 364,
  96, 367,
  96, 368,
  96, 369,
  96, 370,
  96, 373,
  96, 377,
  96, 378,
  96, 379,
  96, 381,
  96, 382,
  96, 385,
  96, 386,
  96, 387,
  96, 388,
  96, 389,
  96, 390,
  96, 392,
  96, 393,
  96, 394,
  96, 396,
  96, 400,
  96, 402,
  96, 404,
  96, 405,
  96, 411,
  96, 413,
  96, 414,
  96, 420,
  96, 421,
  96, 422,
  96, 423,
  96, 424,
  96, 425,
  96, 426,
  96, 427,
  96, 428,
  96, 429,
  96, 431,
  96, 432,
  96, 433,
  96, 435,
  96, 436,
  96, 438,
  96, 440,
  96, 441,
  96, 442,
  96, 446,
  96, 447,
  96, 454,
  96, 455,
  96, 458,
  96, 459,
  96, 460,
  96, 465,
  96, 467,
  96, 468,
  96, 469,
  96, 470,
  96, 471,
  96, 472,
  96, 474,
  96, 478,
  96, 480,
  96, 482,
  96, 485,
  96, 486,
  96, 488,
  96, 490,
  96, 492,
  96, 493,
  96, 497,
  96, 498,
  96, 499,
  97, 98,
  97, 104,
  97, 106,
  97, 107,
  97, 108,
  97, 109,
  97, 110,
  97, 111,
  97, 112,
  97, 113,
  97, 114,
  97, 115,
  97, 116,
  97, 121,
  97, 122,
  97, 123,
  97, 124,
  97, 125,
  97, 126,
  97, 127,
  97, 128,
  97, 129,
  97, 130,
  97, 134,
  97, 135,
  97, 136,
  97, 138,
  97, 140,
  97, 141,
  97, 143,
  97, 147,
  97, 148,
  97, 149,
  97, 151,
  97, 153,
  97, 155,
  97, 157,
  97, 158,
  97, 161,
  97, 162,
  97, 166,
  97, 167,
  97, 171,
  97, 176,
  97, 178,
  97, 181,
  97, 182,
  97, 183,
  97, 185,
  97, 187,
  97, 190,
  97, 192,
  97, 199,
  97, 205,
  97, 210,
  97, 211,
  97, 215,
  97, 216,
  97, 218,
  97, 219,
  97, 222,
  97, 223,
  97, 230,
  97, 232,
  97, 233,
  97, 235,
  97, 238,
  97, 240,
  97, 242,
  97, 243,
  97, 246,
  97, 248,
  97, 250,
  97, 251,
  97, 254,
  97, 258,
  97, 259,
  97, 260,
  97, 261,
  97, 263,
  97, 264,
  97, 269,
  97, 271,
  97, 273,
  97, 274,
  97, 275,
  97, 276,
  97, 278,
  97, 279,
  97, 280,
  97, 281,
  97, 282,
  97, 283,
  97, 285,
  97, 286,
  97, 287,
  97, 289,
  97, 294,
  97, 295,
  97, 296,
  97, 297,
  97, 299,
  97, 302,
  97, 303,
  97, 304,
  97, 309,
  97, 310,
  97, 311,
  97, 314,
  97, 316,
  97, 317,
  97, 318,
  97, 320,
  97, 321,
  97, 322,
  97, 325,
  97, 326,
  97, 328,
  97, 329,
  97, 330,
  97, 335,
  97, 336,
  97, 337,
  97, 339,
  97, 340,
  97, 341,
  97, 343,
  97, 344,
  97, 345,
  97, 346,
  97, 347,
  97, 353,
  97, 357,
  97, 358,
  97, 359,
  97, 363,
  97, 365,
  97, 366,
  97, 367,
  97, 368,
  97, 370,
  97, 371,
  97, 372,
  97, 374,
  97, 376,
  97, 379,
  97, 380,
  97, 383,
  97, 385,
  97, 386,
  97, 387,
  97, 388,
  97, 390,
  97, 391,
  97, 392,
  97, 393,
  97, 394,
  97, 396,
  97, 397,
  97, 398,
  97, 399,
  97, 402,
  97, 403,
  97, 404,
  97, 406,
  97, 407,
  97, 408,
  97, 409,
  97, 411,
  97, 412,
  97, 413,
  97, 416,
  97, 417,
  97, 418,
  97, 420,
  97, 421,
  97, 422,
  97, 425,
  97, 426,
  97, 430,
  97, 431,
  97, 432,
  97, 434,
  97, 436,
  97, 437,
  97, 441,
  97, 442,
  97, 443,
  97, 446,
  97, 447,
  97, 449,
  97, 452,
  97, 453,
  97, 454,
  97, 455,
  97, 461,
  97, 462,
  97, 463,
  97, 465,
  97, 466,
  97, 467,
  97, 468,
  97, 470,
  97, 471,
  97, 472,
  97, 476,
  97, 479,
  97, 481,
  97, 483,
  97, 484,
  97, 485,
  97, 486,
  97, 487,
  97, 489,
  97, 490,
  97, 491,
  97, 492,
  97, 494,
  97, 499,
  97, 500,
  98, 99,
  98, 100,
  98, 101,
  98, 102,
  98, 105,
  98, 107,
  98, 108,
  98, 110,
  98, 115,
  98, 118,
  98, 120,
  98, 124,
  98, 125,
  98, 126,
  98, 129,
  98, 130,
  98, 132,
  98, 133,
  98, 134,
  98, 136,
  98, 140,
  98, 143,
  98, 146,
  98, 149,
  98, 150,
  98, 151,
  98, 153,
  98, 155,
  98, 157,
  98, 158,
  98, 159,
  98, 160,
  98, 161,
  98, 163,
  98, 164,
  98, 165,
  98, 166,
  98, 167,
  98, 169,
  98, 172,
  98, 174,
  98, 179,
  98, 183,
  98, 184,
  98, 185,
  98, 188,
  98, 189,
  98, 190,
  98, 193,
  98, 195,
  98, 197,
  98, 198,
  98, 199,
  98, 203,
  98, 204,
  98, 206,
  98, 207,
  98, 212,
  98, 214,
  98, 215,
  98, 216,
  98, 217,
  98, 221,
  98, 223,
  98, 225,
  98, 228,
  98, 230,
  98, 231,
  98, 233,
  98, 236,
  98, 240,
  98, 243,
  98, 245,
  98, 246,
  98, 247,
  98, 251,
  98, 253,
  98, 255,
  98, 257,
  98, 258,
  98, 260,
  98, 262,
  98, 265,
  98, 270,
  98, 272,
  98, 273,
  98, 275,
  98, 276,
  98, 279,
  98, 280,
  98, 281,
  98, 283,
  98, 285,
  98, 286,
  98, 288,
  98, 290,
  98, 291,
  98, 294,
  98, 296,
  98, 302,
  98, 304,
  98, 305,
  98, 307,
  98, 309,
  98, 310,
  98, 313,
  98, 315,
  98, 322,
  98, 323,
  98, 325,
  98, 326,
  98, 329,
  98, 332,
  98, 333,
  98, 334,
  98, 336,
  98, 337,
  98, 343,
  98, 344,
  98, 345,
  98, 347,
  98, 349,
  98, 352,
  98, 354,
  98, 356,
  98, 360,
  98, 361,
  98, 362,
  98, 365,
  98, 367,
  98, 368,
  98, 370,
  98, 372,
  98, 373,
  98, 374,
  98, 375,
  98, 378,
  98, 380,
  98, 381,
  98, 384,
  98, 385,
  98, 387,
  98, 388,
  98, 389,
  98, 392,
  98, 393,
  98, 399,
  98, 401,
  98, 402,
  98, 403,
  98, 404,
  98, 406,
  98, 407,
  98, 408,
  98, 415,
  98, 416,
  98, 419,
  98, 420,
  98, 421,
  98, 422,
  98, 424,
  98, 426,
  98, 428,
  98, 429,
  98, 431,
  98, 433,
  98, 435,
  98, 437,
  98, 441,
  98, 443,
  98, 444,
  98, 448,
  98, 449,
  98, 453,
  98, 457,
  98, 458,
  98, 459,
  98, 462,
  98, 463,
  98, 466,
  98, 469,
  98, 470,
  98, 474,
  98, 476,
  98, 480,
  98, 483,
  98, 484,
  98, 485,
  98, 486,
  98, 492,
  98, 494,
  98, 495,
  98, 496,
  98, 497,
  98, 498,
  98, 500,
  99, 100,
  99, 101,
  99, 104,
  99, 105,
  99, 113,
  99, 115,
  99, 117,
  99, 122,
  99, 124,
  99, 125,
  99, 126,
  99, 131,
  99, 133,
  99, 135,
  99, 136,
  99, 140,
  99, 141,
  99, 142,
  99, 145,
  99, 147,
  99, 150,
  99, 151,
  99, 152,
  99, 153,
  99, 154,
  99, 157,
  99, 159,
  99, 160,
  99, 162,
  99, 164,
  99, 165,
  99, 168,
  99, 170,
  99, 172,
  99, 173,
  99, 177,
  99, 179,
  99, 180,
  99, 183,
  99, 185,
  99, 188,
  99, 189,
  99, 190,
  99, 192,
  99, 193,
  99, 194,
  99, 196,
  99, 198,
  99, 200,
  99, 201,
  99, 202,
  99, 203,
  99, 204,
  99, 206,
  99, 211,
  99, 213,
  99, 214,
  99, 219,
  99, 222,
  99, 223,
  99, 227,
  99, 228,
  99, 230,
  99, 234,
  99, 235,
  99, 238,
  99, 239,
  99, 240,
  99, 241,
  99, 244,
  99, 245,
  99, 247,
  99, 249,
  99, 253,
  99, 259,
  99, 260,
  99, 263,
  99, 264,
  99, 268,
  99, 270,
  99, 274,
  99, 276,
  99, 277,
  99, 278,
  99, 280,
  99, 282,
  99, 283,
  99, 284,
  99, 285,
  99, 287,
  99, 288,
  99, 290,
  99, 292,
  99, 293,
  99, 295,
  99, 299,
  99, 300,
  99, 301,
  99, 305,
  99, 306,
  99, 307,
  99, 308,
  99, 309,
  99, 310,
  99, 311,
  99, 314,
  99, 315,
  99, 316,
  99, 319,
  99, 321,
  99, 323,
  99, 324,
  99, 326,
  99, 329,
  99, 330,
  99, 331,
  99, 332,
  99, 334,
  99, 337,
  99, 338,
  99, 339,
  99, 347,
  99, 356,
  99, 358,
  99, 362,
  99, 364,
  99, 366,
  99, 367,
  99, 371,
  99, 375,
  99, 376,
  99, 377,
  99, 379,
  99, 381,
  99, 384,
  99, 388,
  99, 389,
  99, 391,
  99, 392,
  99, 396,
  99, 400,
  99, 404,
  99, 405,
  99, 406,
  99, 408,
  99, 409,
  99, 410,
  99, 411,
  99, 412,
  99, 416,
  99, 417,
  99, 418,
  99, 419,
  99, 421,
  99, 422,
  99, 423,
  99, 424,
  99, 426,
  99, 428,
  99, 429,
  99, 433,
  99, 437,
  99, 438,
  99, 439,
  99, 443,
  99, 447,
  99, 449,
  99, 451,
  99, 452,
  99, 453,
  99, 454,
  99, 457,
  99, 463,
  99, 464,
  99, 468,
  99, 470,
  99, 472,
  99, 473,
  99, 474,
  99, 476,
  99, 477,
  99, 481,
  99, 482,
  99, 483,
  99, 486,
  99, 488,
  99, 490,
  99, 491,
  99, 492,
  99, 493,
  99, 494,
  99, 497,
  99, 498,
  100, 101,
  100, 103,
  100, 105,
  100, 106,
  100, 107,
  100, 108,
  100, 109,
  100, 110,
  100, 111,
  100, 113,
  100, 119,
  100, 120,
  100, 121,
  100, 123,
  100, 125,
  100, 128,
  100, 129,
  100, 130,
  100, 132,
  100, 133,
  100, 135,
  100, 136,
  100, 138,
  100, 139,
  100, 143,
  100, 145,
  100, 146,
  100, 150,
  100, 152,
  100, 153,
  100, 154,
  100, 156,
  100, 157,
  100, 158,
  100, 159,
  100, 160,
  100, 162,
  100, 163,
  100, 165,
  100, 167,
  100, 168,
  100, 169,
  100, 171,
  100, 173,
  100, 175,
  100, 176,
  100, 178,
  100, 180,
  100, 183,
  100, 185,
  100, 186,
  100, 187,
  100, 188,
  100, 190,
  100, 193,
  100, 194,
  100, 196,
  100, 199,
  100, 203,
  100, 205,
  100, 206,
  100, 207,
  100, 209,
  100, 211,
  100, 212,
  100, 218,
  100, 219,
  100, 221,
  100, 222,
  100, 223,
  100, 224,
  100, 225,
  100, 226,
  100, 228,
  100, 229,
  100, 230,
  100, 231,
  100, 235,
  100, 236,
  100, 237,
  100, 241,
  100, 242,
  100, 243,
  100, 248,
  100, 249,
  100, 254,
  100, 256,
  100, 258,
  100, 260,
  100, 262,
  100, 263,
  100, 264,
  100, 265,
  100, 267,
  100, 268,
  100, 269,
  100, 270,
  100, 271,
  100, 272,
  100, 275,
  100, 277,
  100, 279,
  100, 280,
  100, 281,
  100, 282,
  100, 285,
  100, 287,
  100, 295,
  100, 297,
  100, 302,
  100, 303,
  100, 304,
  100, 310,
  100, 311,
  100, 314,
  100, 316,
  100, 318,
  100, 319,
  100, 322,
  100, 325,
  100, 326,
  100, 327,
  100, 328,
  100, 331,
  100, 334,
  100, 337,
  100, 339,
  100, 341,
  100, 343,
  100, 344,
  100, 345,
  100, 347,
  100, 350,
  100, 352,
  100, 353,
  100, 354,
  100, 355,
  100, 357,
  100, 358,
  100, 360,
  100, 361,
  100, 363,
  100, 366,
  100, 371,
  100, 375,
  100, 376,
  100, 377,
  100, 379,
  100, 380,
  100, 382,
  100, 383,
  100, 386,
  100, 387,
  100, 388,
  100, 391,
  100, 392,
  100, 394,
  100, 398,
  100, 401,
  100, 402,
  100, 403,
  100, 406,
  100, 407,
  100, 408,
  100, 412,
  100, 413,
  100, 415,
  100, 416,
  100, 418,
  100, 419,
  100, 421,
  100, 425,
  100, 428,
  100, 429,
  100, 432,
  100, 437,
  100, 439,
  100, 441,
  100, 442,
  100, 443,
  100, 444,
  100, 446,
  100, 447,
  100, 449,
  100, 451,
  100, 452,
  100, 454,
  100, 455,
  100, 460,
  100, 462,
  100, 466,
  100, 467,
  100, 469,
  100, 471,
  100, 472,
  100, 473,
  100, 475,
  100, 476,
  100, 478,
  100, 482,
  100, 483,
  100, 484,
  100, 485,
  100, 487,
  100, 489,
  100, 490,
  100, 491,
  100, 493,
  100, 494,
  100, 496,
  100, 497,
  100, 498,
  101, 103,
  101, 104,
  101, 109,
  101, 111,
  101, 112,
  101, 113,
  101, 115,
  101, 118,
  101, 119,
  101, 122,
  101, 124,
  101, 127,
  101, 128,
  101, 133,
  101, 134,
  101, 136,
  101, 137,
  101, 139,
  101, 144,
  101, 146,
  101, 147,
  101, 148,
  101, 149,
  101, 150,
  101, 154,
  101, 158,
  101, 159,
  101, 160,
  101, 161,
  101, 162,
  101, 164,
  101, 165,
  101, 166,
  101, 167,
  101, 168,
  101, 169,
  101, 170,
  101, 171,
  101, 172,
  101, 174,
  101, 179,
  101, 182,
  101, 187,
  101, 188,
  101, 191,
  101, 192,
  101, 195,
  101, 196,
  101, 199,
  101, 200,
  101, 201,
  101, 209,
  101, 214,
  101, 216,
  101, 217,
  101, 218,
  101, 219,
  101, 221,
  101, 222,
  101, 223,
  101, 224,
  101, 227,
  101, 228,
  101, 229,
  101, 230,
  101, 231,
  101, 232,
  101, 233,
  101, 234,
  101, 237,
  101, 238,
  101, 245,
  101, 249,
  101, 250,
  101, 252,
  101, 258,
  101, 262,
  101, 263,
  101, 264,
  101, 265,
  101, 267,
  101, 272,
  101, 273,
  101, 275,
  101, 276,
  101, 278,
  101, 281,
  101, 286,
  101, 289,
  101, 292,
  101, 294,
  101, 295,
  101, 296,
  101, 298,
  101, 299,
  101, 300,
  101, 304,
  101, 306,
  101, 307,
  101, 308,
  101, 311,
  101, 315,
  101, 316,
  101, 320,
  101, 323,
  101, 326,
  101, 328,
  101, 330,
  101, 336,
  101, 338,
  101, 339,
  101, 340,
  101, 341,
  101, 343,
  101, 345,
  101, 346,
  101, 347,
  101, 349,
  101, 352,
  101, 353,
  101, 354,
  101, 357,
  101, 362,
  101, 364,
  101, 365,
  101, 366,
  101, 371,
  101, 372,
  101, 374,
  101, 376,
  101, 377,
  101, 382,
  101, 383,
  101, 384,
  101, 385,
  101, 387,
  101, 388,
  101, 392,
  101, 393,
  101, 396,
  101, 397,
  101, 399,
  101, 402,
  101, 405,
  101, 408,
  101, 412,
  101, 413,
  101, 417,
  101, 420,
  101, 425,
  101, 427,
  101, 428,
  101, 431,
  101, 432,
  101, 433,
  101, 434,
  101, 435,
  101, 436,
  101, 437,
  101, 439,
  101, 441,
  101, 444,
  101, 445,
  101, 447,
  101, 450,
  101, 451,
  101, 454,
  101, 455,
  101, 457,
  101, 458,
  101, 459,
  101, 466,
  101, 467,
  101, 469,
  101, 472,
  101, 474,
  101, 479,
  101, 481,
  101, 483,
  101, 488,
  101, 489,
  101, 490,
  101, 491,
  101, 493,
  101, 494,
  101, 496,
  101, 497,
  101, 500,
  102, 104,
  102, 105,
  102, 108,
  102, 109,
  102, 112,
  102, 114,
  102, 115,
  102, 116,
  102, 117,
  102, 118,
  102, 119,
  102, 120,
  102, 123,
  102, 124,
  102, 127,
  102, 128,
  102, 130,
  102, 131,
  102, 133,
  102, 135,
  102, 136,
  102, 138,
  102, 141,
  102, 143,
  102, 144,
  102, 147,
  102, 149,
  102, 150,
  102, 152,
  102, 153,
  102, 158,
  102, 159,
  102, 160,
  102, 162,
  102, 163,
  102, 164,
  102, 168,
  102, 170,
  102, 172,
  102, 173,
  102, 174,
  102, 176,
  102, 177,
  102, 178,
  102, 179,
  102, 180,
  102, 181,
  102, 182,
  102, 185,
  102, 186,
  102, 187,
  102, 188,
  102, 190,
  102, 197,
  102, 198,
  102, 200,
  102, 204,
  102, 206,
  102, 207,
  102, 208,
  102, 209,
  102, 212,
  102, 213,
  102, 214,
  102, 215,
  102, 216,
  102, 219,
  102, 220,
  102, 225,
  102, 227,
  102, 230,
  102, 231,
  102, 233,
  102, 234,
  102, 237,
  102, 238,
  102, 242,
  102, 243,
  102, 244,
  102, 245,
  102, 248,
  102, 250,
  102, 251,
  102, 252,
  102, 253,
  102, 257,
  102, 258,
  102, 259,
  102, 260,
  102, 261,
  102, 263,
  102, 266,
  102, 267,
  102, 269,
  102, 271,
  102, 272,
  102, 275,
  102, 276,
  102, 278,
  102, 279,
  102, 281,
  102, 283,
  102, 285,
  102, 287,
  102, 288,
  102, 289,
  102, 290,
  102, 291,
  102, 292,
  102, 293,
  102, 295,
  102, 296,
  102, 298,
  102, 305,
  102, 309,
  102, 312,
  102, 313,
  102, 314,
  102, 315,
  102, 317,
  102, 320,
  102, 321,
  102, 322,
  102, 325,
  102, 327,
  102, 328,
  102, 329,
  102, 331,
  102, 333,
  102, 334,
  102, 335,
  102, 336,
  102, 337,
  102, 339,
  102, 340,
  102, 341,
  102, 343,
  102, 345,
  102, 346,
  102, 347,
  102, 348,
  102, 352,
  102, 353,
  102, 355,
  102, 359,
  102, 360,
  102, 361,
  102, 365,
  102, 367,
  102, 368,
  102, 370,
  102, 373,
  102, 375,
  102, 376,
  102, 377,
  102, 379,
  102, 381,
  102, 383,
  102, 385,
  102, 386,
  102, 388,
  102, 389,
  102, 390,
  102, 392,
  102, 394,
  102, 396,
  102, 398,
  102, 399,
  102, 402,
  102, 403,
  102, 404,
  102, 405,
  102, 408,
  102, 409,
  102, 413,
  102, 414,
  102, 415,
  102, 416,
  102, 418,
  102, 419,
  102, 423,
  102, 424,
  102, 425,
  102, 428,
  102, 429,
  102, 430,
  102, 431,
  102, 438,
  102, 439,
  102, 442,
  102, 444,
  102, 445,
  102, 447,
  102, 448,
  102, 449,
  102, 450,
  102, 451,
  102, 454,
  102, 455,
  102, 456,
  102, 458,
  102, 460,
  102, 461,
  102, 464,
  102, 465,
  102, 466,
  102, 467,
  102, 468,
  102, 471,
  102, 472,
  102, 477,
  102, 481,
  102, 485,
  102, 486,
  102, 487,
  102, 488,
  102, 489,
  102, 490,
  102, 492,
  102, 493,
  102, 496,
  102, 497,
  103, 105,
  103, 106,
  103, 108,
  103, 110,
  103, 111,
  103, 112,
  103, 114,
  103, 116,
  103, 117,
  103, 120,
  103, 122,
  103, 123,
  103, 125,
  103, 126,
  103, 129,
  103, 130,
  103, 132,
  103, 134,
  103, 136,
  103, 137,
  103, 138,
  103, 142,
  103, 148,
  103, 152,
  103, 153,
  103, 154,
  103, 155,
  103, 157,
  103, 160,
  103, 161,
  103, 164,
  103, 165,
  103, 166,
  103, 170,
  103, 171,
  103, 172,
  103, 173,
  103, 180,
  103, 181,
  103, 182,
  103, 186,
  103, 188,
  103, 189,
  103, 190,
  103, 192,
  103, 193,
  103, 195,
  103, 196,
  103, 197,
  103, 198,
  103, 200,
  103, 202,
  103, 203,
  103, 204,
  103, 206,
  103, 208,
  103, 209,
  103, 212,
  103, 213,
  103, 216,
  103, 218,
  103, 219,
  103, 220,
  103, 221,
  103, 222,
  103, 223,
  103, 225,
  103, 226,
  103, 231,
  103, 233,
  103, 235,
  103, 236,
  103, 238,
  103, 240,
  103, 241,
  103, 243,
  103, 245,
  103, 246,
  103, 249,
  103, 250,
  103, 253,
  103, 256,
  103, 257,
  103, 260,
  103, 261,
  103, 262,
  103, 266,
  103, 267,
  103, 268,
  103, 269,
  103, 273,
  103, 277,
  103, 279,
  103, 281,
  103, 282,
  103, 285,
  103, 286,
  103, 287,
  103, 289,
  103, 290,
  103, 291,
  103, 293,
  103, 294,
  103, 295,
  103, 297,
  103, 298,
  103, 299,
  103, 301,
  103, 306,
  103, 307,
  103, 309,
  103, 311,
  103, 312,
  103, 313,
  103, 317,
  103, 319,
  103, 320,
  103, 323,
  103, 324,
  103, 325,
  103, 330,
  103, 331,
  103, 332,
  103, 334,
  103, 336,
  103, 340,
  103, 341,
  103, 343,
  103, 346,
  103, 347,
  103, 348,
  103, 350,
  103, 353,
  103, 355,
  103, 358,
  103, 361,
  103, 362,
  103, 363,
  103, 368,
  103, 371,
  103, 372,
  103, 373,
  103, 376,
  103, 378,
  103, 379,
  103, 382,
  103, 384,
  103, 387,
  103, 389,
  103, 392,
  103, 394,
  103, 396,
  103, 403,
  103, 404,
  103, 405,
  103, 409,
  103, 411,
  103, 414,
  103, 417,
  103, 420,
  103, 424,
  103, 426,
  103, 427,
  103, 428,
  103, 429,
  103, 431,
  103, 432,
  103, 433,
  103, 434,
  103, 437,
  103, 439,
  103, 440,
  103, 441,
  103, 445,
  103, 449,
  103, 450,
  103, 451,
  103, 452,
  103, 454,
  103, 455,
  103, 457,
  103, 458,
  103, 461,
  103, 462,
  103, 463,
  103, 464,
  103, 466,
  103, 468,
  103, 469,
  103, 470,
  103, 471,
  103, 473,
  103, 475,
  103, 476,
  103, 477,
  103, 478,
  103, 481,
  103, 482,
  103, 484,
  103, 488,
  103, 490,
  103, 491,
  103, 492,
  103, 495,
  103, 499,
  103, 500,
  104, 107,
  104, 108,
  104, 109,
  104, 110,
  104, 112,
  104, 113,
  104, 117,
  104, 119,
  104, 120,
  104, 121,
  104, 123,
  104, 128,
  104, 131,
  104, 133,
  104, 134,
  104, 135,
  104, 136,
  104, 137,
  104, 138,
  104, 143,
  104, 144,
  104, 145,
  104, 147,
  104, 148,
  104, 149,
  104, 150,
  104, 151,
  104, 153,
  104, 155,
  104, 156,
  104, 157,
  104, 158,
  104, 161,
  104, 162,
  104, 168,
  104, 170,
  104, 171,
  104, 173,
  104, 176,
  104, 178,
  104, 179,
  104, 182,
  104, 183,
  104, 184,
  104, 185,
  104, 186,
  104, 188,
  104, 189,
  104, 191,
  104, 192,
  104, 193,
  104, 194,
  104, 195,
  104, 196,
  104, 198,
  104, 199,
  104, 203,
  104, 204,
  104, 205,
  104, 207,
  104, 208,
  104, 210,
  104, 211,
  104, 213,
  104, 215,
  104, 216,
  104, 218,
  104, 219,
  104, 222,
  104, 223,
  104, 224,
  104, 225,
  104, 228,
  104, 231,
  104, 232,
  104, 233,
  104, 237,
  104, 239,
  104, 240,
  104, 243,
  104, 244,
  104, 247,
  104, 248,
  104, 253,
  104, 254,
  104, 258,
  104, 259,
  104, 260,
  104, 261,
  104, 267,
  104, 268,
  104, 270,
  104, 271,
  104, 272,
  104, 274,
  104, 275,
  104, 278,
  104, 280,
  104, 281,
  104, 284,
  104, 287,
  104, 288,
  104, 289,
  104, 290,
  104, 292,
  104, 295,
  104, 297,
  104, 299,
  104, 301,
  104, 305,
  104, 307,
  104, 308,
  104, 309,
  104, 310,
  104, 311,
  104, 312,
  104, 313,
  104, 316,
  104, 317,
  104, 319,
  104, 321,
  104, 325,
  104, 329,
  104, 331,
  104, 333,
  104, 334,
  104, 335,
  104, 337,
  104, 338,
  104, 339,
  104, 340,
  104, 342,
  104, 343,
  104, 344,
  104, 345,
  104, 346,
  104, 348,
  104, 349,
  104, 350,
  104, 352,
  104, 353,
  104, 355,
  104, 356,
  104, 357,
  104, 359,
  104, 361,
  104, 363,
  104, 364,
  104, 368,
  104, 369,
  104, 370,
  104, 371,
  104, 374,
  104, 375,
  104, 377,
  104, 378,
  104, 379,
  104, 380,
  104, 386,
  104, 388,
  104, 390,
  104, 391,
  104, 392,
  104, 393,
  104, 395,
  104, 397,
  104, 399,
  104, 400,
  104, 404,
  104, 405,
  104, 407,
  104, 408,
  104, 413,
  104, 415,
  104, 416,
  104, 417,
  104, 422,
  104, 423,
  104, 425,
  104, 428,
  104, 433,
  104, 434,
  104, 438,
  104, 439,
  104, 440,
  104, 445,
  104, 446,
  104, 448,
  104, 453,
  104, 455,
  104, 456,
  104, 458,
  104, 460,
  104, 462,
  104, 463,
  104, 465,
  104, 468,
  104, 471,
  104, 475,
  104, 479,
  104, 481,
  104, 482,
  104, 485,
  104, 486,
  104, 487,
  104, 488,
  104, 489,
  104, 494,
  104, 496,
  104, 497,
  104, 498,
  104, 499,
  104, 500,
  105, 106,
  105, 109,
  105, 111,
  105, 115,
  105, 118,
  105, 119,
  105, 121,
  105, 122,
  105, 124,
  105, 127,
  105, 128,
  105, 129,
  105, 130,
  105, 132,
  105, 133,
  105, 134,
  105, 137,
  105, 138,
  105, 140,
  105, 143,
  105, 144,
  105, 147,
  105, 149,
  105, 150,
  105, 151,
  105, 154,
  105, 155,
  105, 156,
  105, 160,
  105, 161,
  105, 163,
  105, 164,
  105, 165,
  105, 167,
  105, 170,
  105, 171,
  105, 172,
  105, 175,
  105, 176,
  105, 177,
  105, 179,
  105, 180,
  105, 181,
  105, 182,
  105, 183,
  105, 184,
  105, 185,
  105, 186,
  105, 188,
  105, 192,
  105, 194,
  105, 195,
  105, 196,
  105, 198,
  105, 199,
  105, 200,
  105, 202,
  105, 206,
  105, 207,
  105, 208,
  105, 210,
  105, 211,
  105, 213,
  105, 215,
  105, 216,
  105, 218,
  105, 220,
  105, 221,
  105, 222,
  105, 223,
  105, 224,
  105, 226,
  105, 228,
  105, 231,
  105, 235,
  105, 238,
  105, 245,
  105, 246,
  105, 247,
  105, 248,
  105, 250,
  105, 252,
  105, 255,
  105, 260,
  105, 262,
  105, 263,
  105, 264,
  105, 266,
  105, 267,
  105, 269,
  105, 276,
  105, 279,
  105, 280,
  105, 281,
  105, 284,
  105, 285,
  105, 287,
  105, 288,
  105, 290,
  105, 294,
  105, 297,
  105, 298,
  105, 300,
  105, 301,
  105, 302,
  105, 303,
  105, 306,
  105, 309,
  105, 311,
  105, 314,
  105, 315,
  105, 316,
  105, 318,
  105, 319,
  105, 320,
  105, 323,
  105, 325,
  105, 328,
  105, 329,
  105, 330,
  105, 331,
  105, 333,
  105, 338,
  105, 339,
  105, 341,
  105, 343,
  105, 344,
  105, 345,
  105, 346,
  105, 348,
  105, 349,
  105, 351,
  105, 352,
  105, 354,
  105, 357,
  105, 365,
  105, 367,
  105, 369,
  105, 376,
  105, 379,
  105, 381,
  105, 385,
  105, 388,
  105, 389,
  105, 390,
  105, 391,
  105, 392,
  105, 393,
  105, 396,
  105, 398,
  105, 399,
  105, 400,
  105, 401,
  105, 402,
  105, 403,
  105, 404,
  105, 406,
  105, 407,
  105, 408,
  105, 410,
  105, 411,
  105, 412,
  105, 413,
  105, 418,
  105, 419,
  105, 422,
  105, 430,
  105, 431,
  105, 432,
  105, 433,
  105, 434,
  105, 435,
  105, 436,
  105, 439,
  105, 441,
  105, 442,
  105, 443,
  105, 445,
  105, 446,
  105, 447,
  105, 448,
  105, 452,
  105, 457,
  105, 462,
  105, 463,
  105, 470,
  105, 471,
  105, 474,
  105, 475,
  105, 479,
  105, 483,
  105, 489,
  105, 491,
  105, 497,
  105, 500,
  106, 108,
  106, 111,
  106, 112,
  106, 113,
  106, 114,
  106, 123,
  106, 124,
  106, 127,
  106, 128,
  106, 130,
  106, 131,
  106, 132,
  106, 133,
  106, 135,
  106, 136,
  106, 137,
  106, 138,
  106, 139,
  106, 142,
  106, 143,
  106, 145,
  106, 146,
  106, 148,
  106, 155,
  106, 156,
  106, 159,
  106, 164,
  106, 170,
  106, 171,
  106, 172,
  106, 177,
  106, 179,
  106, 180,
  106, 181,
  106, 184,
  106, 187,
  106, 190,
  106, 191,
  106, 196,
  106, 198,
  106, 199,
  106, 201,
  106, 202,
  106, 204,
  106, 207,
  106, 209,
  106, 211,
  106, 215,
  106, 216,
  106, 218,
  106, 219,
  106, 220,
  106, 224,
  106, 225,
  106, 227,
  106, 229,
  106, 230,
  106, 236,
  106, 242,
  106, 243,
  106, 249,
  106, 250,
  106, 251,
  106, 252,
  106, 254,
  106, 255,
  106, 257,
  106, 260,
  106, 261,
  106, 263,
  106, 264,
  106, 267,
  106, 270,
  106, 273,
  106, 274,
  106, 275,
  106, 278,
  106, 280,
  106, 283,
  106, 284,
  106, 287,
  106, 290,
  106, 292,
  106, 294,
  106, 297,
  106, 298,
  106, 299,
  106, 302,
  106, 305,
  106, 306,
  106, 308,
  106, 312,
  106, 315,
  106, 317,
  106, 319,
  106, 322,
  106, 325,
  106, 331,
  106, 334,
  106, 335,
  106, 337,
  106, 340,
  106, 341,
  106, 344,
  106, 345,
  106, 348,
  106, 349,
  106, 350,
  106, 353,
  106, 355,
  106, 356,
  106, 358,
  106, 362,
  106, 364,
  106, 366,
  106, 369,
  106, 370,
  106, 373,
  106, 374,
  106, 375,
  106, 376,
  106, 377,
  106, 378,
  106, 382,
  106, 384,
  106, 389,
  106, 390,
  106, 391,
  106, 394,
  106, 396,
  106, 397,
  106, 398,
  106, 399,
  106, 400,
  106, 401,
  106, 404,
  106, 405,
  106, 408,
  106, 409,
  106, 410,
  106, 412,
  106, 413,
  106, 414,
  106, 416,
  106, 417,
  106, 420,
  106, 421,
  106, 422,
  106, 424,
  106, 425,
  106, 426,
  106, 428,
  106, 431,
  106, 432,
  106, 433,
  106, 435,
  106, 437,
  106, 438,
  106, 439,
  106, 440,
  106, 442,
  106, 444,
  106, 445,
  106, 448,
  106, 450,
  106, 451,
  106, 452,
  106, 453,
  106, 456,
  106, 457,
  106, 459,
  106, 460,
  106, 461,
  106, 462,
  106, 464,
  106, 467,
  106, 468,
  106, 469,
  106, 470,
  106, 476,
  106, 480,
  106, 481,
  106, 482,
  106, 485,
  106, 486,
  106, 487,
  106, 489,
  106, 490,
  106, 493,
  106, 497,
  106, 498,
  107, 108,
  107, 109,
  107, 110,
  107, 112,
  107, 114,
  107, 117,
  107, 118,
  107, 121,
  107, 122,
  107, 123,
  107, 125,
  107, 126,
  107, 127,
  107, 128,
  107, 129,
  107, 132,
  107, 136,
  107, 137,
  107, 142,
  107, 145,
  107, 146,
  107, 147,
  107, 149,
  107, 150,
  107, 152,
  107, 155,
  107, 165,
  107, 166,
  107, 167,
  107, 168,
  107, 169,
  107, 170,
  107, 171,
  107, 172,
  107, 174,
  107, 175,
  107, 178,
  107, 181,
  107, 183,
  107, 184,
  107, 186,
  107, 187,
  107, 189,
  107, 191,
  107, 194,
  107, 198,
  107, 199,
  107, 202,
  107, 204,
  107, 207,
  107, 208,
  107, 210,
  107, 213,
  107, 214,
  107, 216,
  107, 219,
  107, 220,
  107, 221,
  107, 223,
  107, 227,
  107, 228,
  107, 230,
  107, 231,
  107, 233,
  107, 235,
  107, 239,
  107, 243,
  107, 244,
  107, 247,
  107, 248,
  107, 251,
  107, 254,
  107, 255,
  107, 257,
  107, 259,
  107, 261,
  107, 262,
  107, 264,
  107, 265,
  107, 266,
  107, 267,
  107, 268,
  107, 270,
  107, 273,
  107, 274,
  107, 275,
  107, 276,
  107, 277,
  107, 278,
  107, 283,
  107, 284,
  107, 288,
  107, 289,
  107, 290,
  107, 293,
  107, 294,
  107, 295,
  107, 299,
  107, 306,
  107, 310,
  107, 311,
  107, 312,
  107, 313,
  107, 314,
  107, 315,
  107, 317,
  107, 320,
  107, 322,
  107, 323,
  107, 324,
  107, 325,
  107, 326,
  107, 327,
  107, 329,
  107, 332,
  107, 337,
  107, 339,
  107, 340,
  107, 341,
  107, 343,
  107, 350,
  107, 355,
  107, 357,
  107, 360,
  107, 362,
  107, 366,
  107, 368,
  107, 370,
  107, 373,
  107, 374,
  107, 376,
  107, 378,
  107, 379,
  107, 384,
  107, 385,
  107, 386,
  107, 387,
  107, 388,
  107, 389,
  107, 392,
  107, 396,
  107, 398,
  107, 399,
  107, 400,
  107, 401,
  107, 402,
  107, 403,
  107, 404,
  107, 405,
  107, 408,
  107, 409,
  107, 410,
  107, 413,
  107, 415,
  107, 416,
  107, 417,
  107, 418,
  107, 419,
  107, 420,
  107, 422,
  107, 425,
  107, 426,
  107, 427,
  107, 428,
  107, 429,
  107, 432,
  107, 433,
  107, 434,
  107, 437,
  107, 438,
  107, 439,
  107, 442,
  107, 443,
  107, 445,
  107, 446,
  107, 447,
  107, 448,
  107, 449,
  107, 450,
  107, 454,
  107, 455,
  107, 456,
  107, 459,
  107, 460,
  107, 461,
  107, 463,
  107, 465,
  107, 466,
  107, 471,
  107, 472,
  107, 473,
  107, 477,
  107, 479,
  107, 481,
  107, 482,
  107, 484,
  107, 485,
  107, 488,
  107, 489,
  107, 490,
  107, 492,
  107, 493,
  107, 495,
  107, 500,
  108, 109,
  108, 113,
  108, 119,
  108, 121,
  108, 123,
  108, 125,
  108, 126,
  108, 128,
  108, 129,
  108, 131,
  108, 132,
  108, 133,
  108, 134,
  108, 136,
  108, 138,
  108, 139,
  108, 140,
  108, 142,
  108, 143,
  108, 145,
  108, 152,
  108, 155,
  108, 156,
  108, 158,
  108, 160,
  108, 162,
  108, 163,
  108, 166,
  108, 167,
  108, 169,
  108, 170,
  108, 171,
  108, 174,
  108, 175,
  108, 176,
  108, 177,
  108, 183,
  108, 185,
  108, 186,
  108, 188,
  108, 189,
  108, 191,
  108, 192,
  108, 194,
  108, 196,
  108, 198,
  108, 200,
  108, 201,
  108, 203,
  108, 205,
  108, 206,
  108, 208,
  108, 209,
  108, 210,
  108, 213,
  108, 215,
  108, 216,
  108, 217,
  108, 218,
  108, 219,
  108, 221,
  108, 223,
  108, 224,
  108, 226,
  108, 228,
  108, 229,
  108, 230,
  108, 233,
  108, 234,
  108, 236,
  108, 239,
  108, 240,
  108, 241,
  108, 242,
  108, 243,
  108, 245,
  108, 246,
  108, 247,
  108, 249,
  108, 250,
  108, 255,
  108, 256,
  108, 262,
  108, 263,
  108, 267,
  108, 269,
  108, 272,
  108, 276,
  108, 277,
  108, 279,
  108, 280,
  108, 283,
  108, 284,
  108, 285,
  108, 288,
  108, 289,
  108, 290,
  108, 292,
  108, 293,
  108, 294,
  108, 298,
  108, 299,
  108, 302,
  108, 303,
  108, 304,
  108, 305,
  108, 306,
  108, 308,
  108, 311,
  108, 313,
  108, 317,
  108, 320,
  108, 323,
  108, 324,
  108, 326,
  108, 327,
  108, 329,
  108, 330,
  108, 334,
  108, 336,
  108, 337,
  108, 341,
  108, 342,
  108, 344,
  108, 347,
  108, 348,
  108, 349,
  108, 350,
  108, 353,
  108, 357,
  108, 358,
  108, 359,
  108, 360,
  108, 361,
  108, 365,
  108, 366,
  108, 367,
  108, 373,
  108, 382,
  108, 385,
  108, 386,
  108, 388,
  108, 389,
  108, 391,
  108, 392,
  108, 393,
  108, 394,
  108, 395,
  108, 397,
  108, 400,
  108, 401,
  108, 403,
  108, 404,
  108, 406,
  108, 407,
  108, 408,
  108, 409,
  108, 412,
  108, 415,
  108, 417,
  108, 419,
  108, 420,
  108, 422,
  108, 424,
  108, 425,
  108, 428,
  108, 431,
  108, 435,
  108, 436,
  108, 437,
  108, 440,
  108, 441,
  108, 446,
  108, 447,
  108, 448,
  108, 450,
  108, 454,
  108, 455,
  108, 456,
  108, 464,
  108, 465,
  108, 466,
  108, 467,
  108, 468,
  108, 469,
  108, 471,
  108, 472,
  108, 476,
  108, 477,
  108, 480,
  108, 483,
  108, 489,
  108, 491,
  108, 493,
  108, 495,
  108, 499,
  109, 113,
  109, 114,
  109, 115,
  109, 116,
  109, 121,
  109, 123,
  109, 129,
  109, 131,
  109, 132,
  109, 133,
  109, 134,
  109, 135,
  109, 138,
  109, 140,
  109, 142,
  109, 145,
  109, 147,
  109, 148,
  109, 150,
  109, 153,
  109, 156,
  109, 157,
  109, 161,
  109, 164,
  109, 167,
  109, 169,
  109, 171,
  109, 175,
  109, 177,
  109, 178,
  109, 179,
  109, 180,
  109, 181,
  109, 182,
  109, 183,
  109, 185,
  109, 187,
  109, 191,
  109, 193,
  109, 194,
  109, 197,
  109, 199,
  109, 201,
  109, 204,
  109, 206,
  109, 208,
  109, 209,
  109, 212,
  109, 214,
  109, 215,
  109, 218,
  109, 219,
  109, 220,
  109, 221,
  109, 222,
  109, 223,
  109, 224,
  109, 225,
  109, 227,
  109, 228,
  109, 231,
  109, 232,
  109, 234,
  109, 235,
  109, 240,
  109, 246,
  109, 247,
  109, 250,
  109, 251,
  109, 253,
  109, 254,
  109, 256,
  109, 257,
  109, 258,
  109, 260,
  109, 261,
  109, 264,
  109, 265,
  109, 266,
  109, 268,
  109, 269,
  109, 274,
  109, 276,
  109, 278,
  109, 279,
  109, 280,
  109, 281,
  109, 282,
  109, 283,
  109, 285,
  109, 289,
  109, 291,
  109, 292,
  109, 293,
  109, 296,
  109, 302,
  109, 303,
  109, 304,
  109, 308,
  109, 311,
  109, 313,
  109, 314,
  109, 319,
  109, 323,
  109, 326,
  109, 328,
  109, 329,
  109, 331,
  109, 332,
  109, 334,
  109, 335,
  109, 337,
  109, 338,
  109, 339,
  109, 340,
  109, 344,
  109, 345,
  109, 347,
  109, 349,
  109, 352,
  109, 353,
  109, 354,
  109, 358,
  109, 359,
  109, 360,
  109, 362,
  109, 365,
  109, 367,
  109, 375,
  109, 376,
  109, 377,
  109, 380,
  109, 381,
  109, 383,
  109, 385,
  109, 387,
  109, 389,
  109, 392,
  109, 394,
  109, 396,
  109, 397,
  109, 398,
  109, 401,
  109, 402,
  109, 404,
  109, 405,
  109, 406,
  109, 407,
  109, 408,
  109, 411,
  109, 413,
  109, 414,
  109, 416,
  109, 418,
  109, 421,
  109, 422,
  109, 425,
  109, 429,
  109, 433,
  109, 434,
  109, 436,
  109, 437,
  109, 438,
  109, 440,
  109, 441,
  109, 442,
  109, 446,
  109, 447,
  109, 449,
  109, 450,
  109, 452,
  109, 454,
  109, 461,
  109, 467,
  109, 468,
  109, 469,
  109, 471,
  109, 472,
  109, 475,
  109, 478,
  109, 482,
  109, 483,
  109, 485,
  109, 486,
  109, 488,
  109, 489,
  109, 494,
  109, 495,
  109, 496,
  109, 497,
  109, 499,
  110, 111,
  110, 112,
  110, 113,
  110, 114,
  110, 115,
  110, 116,
  110, 117,
  110, 120,
  110, 121,
  110, 122,
  110, 123,
  110, 124,
  110, 126,
  110, 127,
  110, 128,
  110, 129,
  110, 130,
  110, 131,
  110, 132,
  110, 135,
  110, 138,
  110, 142,
  110, 143,
  110, 144,
  110, 151,
  110, 152,
  110, 153,
  110, 156,
  110, 157,
  110, 161,
  110, 162,
  110, 163,
  110, 164,
  110, 165,
  110, 166,
  110, 169,
  110, 170,
  110, 171,
  110, 172,
  110, 174,
  110, 179,
  110, 180,
  110, 182,
  110, 183,
  110, 184,
  110, 186,
  110, 189,
  110, 192,
  110, 194,
  110, 195,
  110, 196,
  110, 197,
  110, 199,
  110, 202,
  110, 204,
  110, 205,
  110, 206,
  110, 207,
  110, 209,
  110, 210,
  110, 212,
  110, 213,
  110, 214,
  110, 217,
  110, 219,
  110, 220,
  110, 221,
  110, 223,
  110, 227,
  110, 228,
  110, 230,
  110, 231,
  110, 238,
  110, 240,
  110, 241,
  110, 242,
  110, 243,
  110, 244,
  110, 245,
  110, 247,
  110, 248,
  110, 249,
  110, 250,
  110, 251,
  110, 252,
  110, 255,
  110, 257,
  110, 259,
  110, 261,
  110, 267,
  110, 268,
  110, 270,
  110, 276,
  110, 277,
  110, 279,
  110, 280,
  110, 282,
  110, 284,
  110, 289,
  110, 290,
  110, 291,
  110, 294,
  110, 295,
  110, 297,
  110, 298,
  110, 304,
  110, 305,
  110, 306,
  110, 307,
  110, 308,
  110, 310,
  110, 313,
  110, 314,
  110, 319,
  110, 322,
  110, 323,
  110, 326,
  110, 328,
  110, 330,
  110, 332,
  110, 333,
  110, 338,
  110, 339,
  110, 341,
  110, 342,
  110, 343,
  110, 344,
  110, 345,
  110, 346,
  110, 347,
  110, 350,
  110, 351,
  110, 352,
  110, 353,
  110, 356,
  110, 357,
  110, 360,
  110, 361,
  110, 363,
  110, 365,
  110, 367,
  110, 368,
  110, 369,
  110, 371,
  110, 373,
  110, 374,
  110, 377,
  110, 378,
  110, 379,
  110, 386,
  110, 388,
  110, 393,
  110, 395,
  110, 398,
  110, 402,
  110, 404,
  110, 406,
  110, 408,
  110, 409,
  110, 411,
  110, 414,
  110, 415,
  110, 416,
  110, 417,
  110, 418,
  110, 419,
  110, 423,
  110, 425,
  110, 427,
  110, 431,
  110, 435,
  110, 436,
  110, 438,
  110, 440,
  110, 441,
  110, 442,
  110, 446,
  110, 448,
  110, 451,
  110, 453,
  110, 455,
  110, 456,
  110, 457,
  110, 466,
  110, 469,
  110, 471,
  110, 472,
  110, 474,
  110, 479,
  110, 480,
  110, 481,
  110, 483,
  110, 484,
  110, 485,
  110, 488,
  110, 491,
  110, 493,
  110, 496,
  110, 497,
  110, 499,
  110, 500,
  111, 115,
  111, 117,
  111, 119,
  111, 120,
  111, 121,
  111, 123,
  111, 124,
  111, 125,
  111, 127,
  111, 129,
  111, 130,
  111, 132,
  111, 136,
  111, 138,
  111, 141,
  111, 143,
  111, 144,
  111, 145,
  111, 147,
  111, 152,
  111, 153,
  111, 158,
  111, 159,
  111, 162,
  111, 163,
  111, 168,
  111, 175,
  111, 177,
  111, 178,
  111, 179,
  111, 180,
  111, 181,
  111, 182,
  111, 183,
  111, 184,
  111, 185,
  111, 187,
  111, 188,
  111, 189,
  111, 190,
  111, 192,
  111, 193,
  111, 195,
  111, 196,
  111, 197,
  111, 200,
  111, 201,
  111, 202,
  111, 204,
  111, 210,
  111, 211,
  111, 212,
  111, 213,
  111, 218,
  111, 219,
  111, 220,
  111, 222,
  111, 223,
  111, 226,
  111, 227,
  111, 228,
  111, 231,
  111, 232,
  111, 233,
  111, 234,
  111, 235,
  111, 236,
  111, 239,
  111, 241,
  111, 242,
  111, 243,
  111, 245,
  111, 246,
  111, 249,
  111, 250,
  111, 251,
  111, 256,
  111, 257,
  111, 259,
  111, 260,
  111, 261,
  111, 262,
  111, 263,
  111, 264,
  111, 265,
  111, 268,
  111, 269,
  111, 272,
  111, 275,
  111, 277,
  111, 278,
  111, 282,
  111, 283,
  111, 284,
  111, 286,
  111, 289,
  111, 290,
  111, 292,
  111, 294,
  111, 296,
  111, 298,
  111, 299,
  111, 301,
  111, 302,
  111, 308,
  111, 309,
  111, 310,
  111, 311,
  111, 313,
  111, 315,
  111, 316,
  111, 320,
  111, 321,
  111, 322,
  111, 324,
  111, 328,
  111, 329,
  111, 330,
  111, 331,
  111, 332,
  111, 333,
  111, 335,
  111, 336,
  111, 339,
  111, 341,
  111, 344,
  111, 347,
  111, 348,
  111, 350,
  111, 351,
  111, 352,
  111, 354,
  111, 356,
  111, 361,
  111, 362,
  111, 364,
  111, 365,
  111, 366,
  111, 367,
  111, 370,
  111, 371,
  111, 373,
  111, 374,
  111, 376,
  111, 378,
  111, 380,
  111, 387,
  111, 388,
  111, 391,
  111, 393,
  111, 395,
  111, 399,
  111, 400,
  111, 401,
  111, 402,
  111, 404,
  111, 405,
  111, 411,
  111, 412,
  111, 414,
  111, 418,
  111, 419,
  111, 420,
  111, 423,
  111, 427,
  111, 429,
  111, 434,
  111, 436,
  111, 438,
  111, 439,
  111, 442,
  111, 444,
  111, 447,
  111, 448,
  111, 450,
  111, 451,
  111, 455,
  111, 456,
  111, 458,
  111, 460,
  111, 462,
  111, 464,
  111, 465,
  111, 466,
  111, 467,
  111, 468,
  111, 469,
  111, 471,
  111, 472,
  111, 474,
  111, 476,
  111, 478,
  111, 480,
  111, 482,
  111, 486,
  111, 489,
  111, 490,
  111, 494,
  111, 495,
  111, 496,
  111, 499,
  111, 500,
  112, 113,
  112, 114,
  112, 115,
  112, 119,
  112, 120,
  112, 122,
  112, 123,
  112, 124,
  112, 125,
  112, 126,
  112, 128,
  112, 130,
  112, 132,
  112, 133,
  112, 134,
  112, 137,
  112, 138,
  112, 140,
  112, 141,
  112, 143,
  112, 144,
  112, 145,
  112, 148,
  112, 149,
  112, 150,
  112, 151,
  112, 153,
  112, 154,
  112, 157,
  112, 159,
  112, 160,
  112, 166,
  112, 167,
  112, 169,
  112, 170,
  112, 171,
  112, 173,
  112, 174,
  112, 175,
  112, 176,
  112, 178,
  112, 180,
  112, 181,
  112, 183,
  112, 187,
  112, 190,
  112, 194,
  112, 197,
  112, 199,
  112, 202,
  112, 203,
  112, 204,
  112, 205,
  112, 209,
  112, 211,
  112, 213,
  112, 214,
  112, 217,
  112, 220,
  112, 221,
  112, 223,
  112, 224,
  112, 226,
  112, 231,
  112, 234,
  112, 235,
  112, 240,
  112, 242,
  112, 248,
  112, 249,
  112, 250,
  112, 255,
  112, 257,
  112, 259,
  112, 262,
  112, 264,
  112, 267,
  112, 268,
  112, 269,
  112, 271,
  112, 274,
  112, 279,
  112, 283,
  112, 285,
  112, 287,
  112, 288,
  112, 291,
  112, 294,
  112, 301,
  112, 305,
  112, 307,
  112, 308,
  112, 311,
  112, 312,
  112, 314,
  112, 316,
  112, 317,
  112, 318,
  112, 319,
  112, 320,
  112, 322,
  112, 325,
  112, 327,
  112, 328,
  112, 329,
  112, 331,
  112, 332,
  112, 334,
  112, 337,
  112, 339,
  112, 340,
  112, 343,
  112, 345,
  112, 346,
  112, 349,
  112, 353,
  112, 354,
  112, 358,
  112, 360,
  112, 361,
  112, 362,
  112, 366,
  112, 369,
  112, 371,
  112, 372,
  112, 374,
  112, 381,
  112, 387,
  112, 389,
  112, 392,
  112, 397,
  112, 399,
  112, 400,
  112, 401,
  112, 402,
  112, 405,
  112, 406,
  112, 408,
  112, 409,
  112, 411,
  112, 412,
  112, 413,
  112, 414,
  112, 417,
  112, 420,
  112, 421,
  112, 422,
  112, 423,
  112, 424,
  112, 425,
  112, 426,
  112, 427,
  112, 428,
  112, 429,
  112, 431,
  112, 432,
  112, 434,
  112, 437,
  112, 439,
  112, 441,
  112, 446,
  112, 452,
  112, 453,
  112, 454,
  112, 455,
  112, 456,
  112, 460,
  112, 461,
  112, 463,
  112, 465,
  112, 466,
  112, 467,
  112, 469,
  112, 472,
  112, 473,
  112, 477,
  112, 479,
  112, 480,
  112, 482,
  112, 484,
  112, 487,
  112, 489,
  112, 491,
  112, 494,
  112, 496,
  112, 497,
  112, 498,
  112, 499,
  112, 500,
  113, 114,
  113, 118,
  113, 121,
  113, 123,
  113, 131,
  113, 132,
  113, 134,
  113, 137,
  113, 138,
  113, 141,
  113, 143,
  113, 146,
  113, 151,
  113, 152,
  113, 153,
  113, 154,
  113, 155,
  113, 160,
  113, 162,
  113, 163,
  113, 165,
  113, 169,
  113, 170,
  113, 171,
  113, 176,
  113, 177,
  113, 179,
  113, 181,
  113, 183,
  113, 184,
  113, 185,
  113, 186,
  113, 187,
  113, 188,
  113, 189,
  113, 191,
  113, 195,
  113, 199,
  113, 202,
  113, 204,
  113, 205,
  113, 206,
  113, 214,
  113, 216,
  113, 220,
  113, 225,
  113, 228,
  113, 231,
  113, 233,
  113, 234,
  113, 235,
  113, 237,
  113, 238,
  113, 240,
  113, 241,
  113, 242,
  113, 243,
  113, 244,
  113, 246,
  113, 250,
  113, 252,
  113, 253,
  113, 254,
  113, 256,
  113, 257,
  113, 258,
  113, 260,
  113, 262,
  113, 263,
  113, 267,
  113, 269,
  113, 272,
  113, 273,
  113, 274,
  113, 277,
  113, 278,
  113, 279,
  113, 281,
  113, 283,
  113, 284,
  113, 290,
  113, 292,
  113, 294,
  113, 297,
  113, 298,
  113, 300,
  113, 304,
  113, 308,
  113, 309,
  113, 311,
  113, 312,
  113, 313,
  113, 315,
  113, 316,
  113, 317,
  113, 318,
  113, 321,
  113, 322,
  113, 324,
  113, 328,
  113, 329,
  113, 330,
  113, 331,
  113, 332,
  113, 334,
  113, 336,
  113, 339,
  113, 340,
  113, 342,
  113, 343,
  113, 344,
  113, 345,
  113, 346,
  113, 347,
  113, 349,
  113, 351,
  113, 352,
  113, 355,
  113, 357,
  113, 358,
  113, 359,
  113, 361,
  113, 362,
  113, 364,
  113, 366,
  113, 369,
  113, 374,
  113, 375,
  113, 376,
  113, 378,
  113, 379,
  113, 380,
  113, 382,
  113, 386,
  113, 394,
  113, 396,
  113, 397,
  113, 398,
  113, 399,
  113, 402,
  113, 403,
  113, 404,
  113, 405,
  113, 406,
  113, 407,
  113, 409,
  113, 411,
  113, 412,
  113, 415,
  113, 416,
  113, 418,
  113, 419,
  113, 420,
  113, 421,
  113, 426,
  113, 428,
  113, 429,
  113, 432,
  113, 433,
  113, 437,
  113, 440,
  113, 441,
  113, 444,
  113, 448,
  113, 450,
  113, 452,
  113, 453,
  113, 457,
  113, 462,
  113, 463,
  113, 465,
  113, 469,
  113, 470,
  113, 472,
  113, 474,
  113, 478,
  113, 480,
  113, 482,
  113, 483,
  113, 485,
  113, 486,
  113, 490,
  113, 493,
  113, 494,
  113, 495,
  113, 496,
  113, 499,
  113, 500,
  114, 116,
  114, 117,
  114, 118,
  114, 119,
  114, 121,
  114, 122,
  114, 123,
  114, 128,
  114, 129,
  114, 131,
  114, 132,
  114, 133,
  114, 134,
  114, 136,
  114, 138,
  114, 140,
  114, 143,
  114, 146,
  114, 149,
  114, 150,
  114, 151,
  114, 154,
  114, 161,
  114, 162,
  114, 163,
  114, 164,
  114, 166,
  114, 168,
  114, 169,
  114, 172,
  114, 174,
  114, 175,
  114, 176,
  114, 178,
  114, 180,
  114, 183,
  114, 185,
  114, 186,
  114, 188,
  114, 192,
  114, 193,
  114, 194,
  114, 195,
  114, 196,
  114, 198,
  114, 199,
  114, 202,
  114, 203,
  114, 207,
  114, 208,
  114, 211,
  114, 212,
  114, 214,
  114, 216,
  114, 219,
  114, 220,
  114, 221,
  114, 224,
  114, 226,
  114, 227,
  114, 230,
  114, 232,
  114, 233,
  114, 235,
  114, 236,
  114, 241,
  114, 244,
  114, 245,
  114, 246,
  114, 248,
  114, 251,
  114, 254,
  114, 256,
  114, 259,
  114, 260,
  114, 261,
  114, 262,
  114, 270,
  114, 273,
  114, 274,
  114, 279,
  114, 282,
  114, 284,
  114, 286,
  114, 289,
  114, 290,
  114, 291,
  114, 295,
  114, 296,
  114, 297,
  114, 300,
  114, 303,
  114, 304,
  114, 305,
  114, 308,
  114, 310,
  114, 311,
  114, 312,
  114, 314,
  114, 317,
  114, 318,
  114, 319,
  114, 320,
  114, 321,
  114, 323,
  114, 325,
  114, 326,
  114, 328,
  114, 330,
  114, 331,
  114, 332,
  114, 333,
  114, 334,
  114, 336,
  114, 338,
  114, 339,
  114, 342,
  114, 343,
  114, 344,
  114, 348,
  114, 350,
  114, 359,
  114, 360,
  114, 362,
  114, 363,
  114, 364,
  114, 365,
  114, 367,
  114, 368,
  114, 369,
  114, 373,
  114, 374,
  114, 376,
  114, 377,
  114, 380,
  114, 384,
  114, 386,
  114, 388,
  114, 393,
  114, 398,
  114, 399,
  114, 400,
  114, 401,
  114, 404,
  114, 405,
  114, 408,
  114, 413,
  114, 414,
  114, 415,
  114, 417,
  114, 420,
  114, 426,
  114, 429,
  114, 430,
  114, 435,
  114, 439,
  114, 441,
  114, 442,
  114, 443,
  114, 448,
  114, 450,
  114, 451,
  114, 454,
  114, 456,
  114, 457,
  114, 458,
  114, 463,
  114, 465,
  114, 466,
  114, 467,
  114, 468,
  114, 469,
  114, 471,
  114, 473,
  114, 474,
  114, 475,
  114, 477,
  114, 479,
  114, 480,
  114, 483,
  114, 484,
  114, 485,
  114, 486,
  114, 487,
  114, 489,
  114, 493,
  114, 494,
  114, 495,
  114, 498,
  114, 499,
  115, 116,
  115, 117,
  115, 119,
  115, 120,
  115, 124,
  115, 125,
  115, 126,
  115, 127,
  115, 128,
  115, 130,
  115, 131,
  115, 132,
  115, 137,
  115, 138,
  115, 142,
  115, 146,
  115, 147,
  115, 150,
  115, 151,
  115, 152,
  115, 156,
  115, 157,
  115, 159,
  115, 161,
  115, 166,
  115, 168,
  115, 172,
  115, 177,
  115, 178,
  115, 180,
  115, 181,
  115, 185,
  115, 186,
  115, 188,
  115, 190,
  115, 192,
  115, 193,
  115, 196,
  115, 197,
  115, 199,
  115, 201,
  115, 202,
  115, 203,
  115, 205,
  115, 206,
  115, 212,
  115, 214,
  115, 216,
  115, 217,
  115, 218,
  115, 221,
  115, 225,
  115, 228,
  115, 231,
  115, 232,
  115, 233,
  115, 235,
  115, 238,
  115, 239,
  115, 241,
  115, 242,
  115, 244,
  115, 246,
  115, 247,
  115, 248,
  115, 249,
  115, 250,
  115, 251,
  115, 253,
  115, 254,
  115, 255,
  115, 258,
  115, 259,
  115, 260,
  115, 264,
  115, 265,
  115, 268,
  115, 271,
  115, 277,
  115, 279,
  115, 283,
  115, 284,
  115, 285,
  115, 286,
  115, 287,
  115, 289,
  115, 290,
  115, 293,
  115, 294,
  115, 295,
  115, 302,
  115, 303,
  115, 304,
  115, 305,
  115, 306,
  115, 308,
  115, 309,
  115, 312,
  115, 314,
  115, 315,
  115, 316,
  115, 318,
  115, 319,
  115, 320,
  115, 321,
  115, 322,
  115, 325,
  115, 327,
  115, 328,
  115, 331,
  115, 332,
  115, 333,
  115, 334,
  115, 335,
  115, 337,
  115, 338,
  115, 340,
  115, 343,
  115, 344,
  115, 347,
  115, 349,
  115, 351,
  115, 355,
  115, 357,
  115, 358,
  115, 361,
  115, 363,
  115, 364,
  115, 366,
  115, 370,
  115, 372,
  115, 375,
  115, 376,
  115, 377,
  115, 380,
  115, 382,
  115, 383,
  115, 385,
  115, 388,
  115, 389,
  115, 391,
  115, 392,
  115, 393,
  115, 395,
  115, 396,
  115, 398,
  115, 401,
  115, 409,
  115, 411,
  115, 412,
  115, 414,
  115, 416,
  115, 418,
  115, 419,
  115, 420,
  115, 421,
  115, 422,
  115, 423,
  115, 424,
  115, 426,
  115, 428,
  115, 429,
  115, 433,
  115, 434,
  115, 435,
  115, 438,
  115, 439,
  115, 441,
  115, 442,
  115, 443,
  115, 444,
  115, 446,
  115, 447,
  115, 453,
  115, 454,
  115, 456,
  115, 459,
  115, 460,
  115, 462,
  115, 463,
  115, 466,
  115, 467,
  115, 469,
  115, 470,
  115, 477,
  115, 478,
  115, 479,
  115, 480,
  115, 483,
  115, 484,
  115, 486,
  115, 487,
  115, 489,
  115, 490,
  115, 492,
  115, 497,
  115, 499,
  115, 500,
  116, 118,
  116, 121,
  116, 124,
  116, 126,
  116, 127,
  116, 128,
  116, 132,
  116, 134,
  116, 135,
  116, 137,
  116, 140,
  116, 142,
  116, 143,
  116, 144,
  116, 146,
  116, 148,
  116, 153,
  116, 154,
  116, 155,
  116, 156,
  116, 157,
  116, 158,
  116, 159,
  116, 164,
  116, 165,
  116, 168,
  116, 171,
  116, 173,
  116, 174,
  116, 175,
  116, 179,
  116, 180,
  116, 181,
  116, 182,
  116, 183,
  116, 186,
  116, 187,
  116, 190,
  116, 191,
  116, 192,
  116, 193,
  116, 194,
  116, 196,
  116, 197,
  116, 200,
  116, 201,
  116, 203,
  116, 210,
  116, 213,
  116, 215,
  116, 217,
  116, 221,
  116, 227,
  116, 228,
  116, 229,
  116, 232,
  116, 235,
  116, 237,
  116, 242,
  116, 244,
  116, 245,
  116, 247,
  116, 249,
  116, 250,
  116, 252,
  116, 256,
  116, 257,
  116, 258,
  116, 261,
  116, 262,
  116, 264,
  116, 268,
  116, 271,
  116, 274,
  116, 276,
  116, 277,
  116, 279,
  116, 280,
  116, 281,
  116, 283,
  116, 286,
  116, 289,
  116, 291,
  116, 292,
  116, 293,
  116, 296,
  116, 297,
  116, 299,
  116, 300,
  116, 301,
  116, 302,
  116, 305,
  116, 306,
  116, 309,
  116, 311,
  116, 313,
  116, 314,
  116, 315,
  116, 316,
  116, 317,
  116, 326,
  116, 327,
  116, 328,
  116, 331,
  116, 334,
  116, 335,
  116, 336,
  116, 338,
  116, 339,
  116, 340,
  116, 344,
  116, 347,
  116, 350,
  116, 353,
  116, 356,
  116, 357,
  116, 360,
  116, 365,
  116, 371,
  116, 372,
  116, 375,
  116, 377,
  116, 378,
  116, 379,
  116, 381,
  116, 383,
  116, 384,
  116, 385,
  116, 389,
  116, 390,
  116, 391,
  116, 393,
  116, 395,
  116, 396,
  116, 398,
  116, 399,
  116, 400,
  116, 403,
  116, 404,
  116, 405,
  116, 406,
  116, 407,
  116, 408,
  116, 410,
  116, 411,
  116, 413,
  116, 414,
  116, 415,
  116, 417,
  116, 418,
  116, 426,
  116, 427,
  116, 428,
  116, 430,
  116, 431,
  116, 432,
  116, 433,
  116, 437,
  116, 439,
  116, 442,
  116, 443,
  116, 444,
  116, 445,
  116, 446,
  116, 448,
  116, 449,
  116, 451,
  116, 452,
  116, 453,
  116, 454,
  116, 455,
  116, 457,
  116, 458,
  116, 459,
  116, 462,
  116, 466,
  116, 468,
  116, 470,
  116, 472,
  116, 473,
  116, 474,
  116, 475,
  116, 479,
  116, 480,
  116, 482,
  116, 483,
  116, 484,
  116, 486,
  116, 490,
  116, 492,
  116, 493,
  116, 495,
  116, 498,
  116, 499,
  116, 500,
  117, 120,
  117, 121,
  117, 122,
  117, 125,
  117, 126,
  117, 128,
  117, 131,
  117, 132,
  117, 133,
  117, 135,
  117, 138,
  117, 144,
  117, 145,
  117, 147,
  117, 148,
  117, 149,
  117, 151,
  117, 154,
  117, 155,
  117, 156,
  117, 157,
  117, 158,
  117, 161,
  117, 162,
  117, 163,
  117, 164,
  117, 168,
  117, 169,
  117, 170,
  117, 175,
  117, 176,
  117, 177,
  117, 178,
  117, 180,
  117, 182,
  117, 183,
  117, 184,
  117, 185,
  117, 188,
  117, 190,
  117, 191,
  117, 198,
  117, 199,
  117, 203,
  117, 204,
  117, 205,
  117, 212,
  117, 213,
  117, 214,
  117, 215,
  117, 216,
  117, 217,
  117, 218,
  117, 219,
  117, 220,
  117, 222,
  117, 223,
  117, 224,
  117, 230,
  117, 232,
  117, 238,
  117, 240,
  117, 242,
  117, 243,
  117, 244,
  117, 245,
  117, 246,
  117, 248,
  117, 252,
  117, 253,
  117, 256,
  117, 257,
  117, 258,
  117, 259,
  117, 260,
  117, 263,
  117, 265,
  117, 266,
  117, 267,
  117, 268,
  117, 269,
  117, 271,
  117, 277,
  117, 281,
  117, 284,
  117, 286,
  117, 287,
  117, 291,
  117, 292,
  117, 295,
  117, 298,
  117, 300,
  117, 301,
  117, 303,
  117, 308,
  117, 309,
  117, 311,
  117, 313,
  117, 315,
  117, 318,
  117, 320,
  117, 321,
  117, 324,
  117, 329,
  117, 331,
  117, 333,
  117, 334,
  117, 336,
  117, 338,
  117, 341,
  117, 342,
  117, 343,
  117, 346,
  117, 348,
  117, 349,
  117, 350,
  117, 352,
  117, 353,
  117, 354,
  117, 355,
  117, 360,
  117, 361,
  117, 362,
  117, 363,
  117, 364,
  117, 365,
  117, 370,
  117, 371,
  117, 372,
  117, 373,
  117, 374,
  117, 377,
  117, 378,
  117, 382,
  117, 387,
  117, 388,
  117, 392,
  117, 393,
  117, 395,
  117, 396,
  117, 397,
  117, 399,
  117, 400,
  117, 401,
  117, 402,
  117, 406,
  117, 407,
  117, 409,
  117, 411,
  117, 412,
  117, 413,
  117, 416,
  117, 417,
  117, 418,
  117, 419,
  117, 420,
  117, 421,
  117, 426,
  117, 428,
  117, 429,
  117, 430,
  117, 431,
  117, 432,
  117, 434,
  117, 438,
  117, 440,
  117, 441,
  117, 443,
  117, 445,
  117, 447,
  117, 448,
  117, 450,
  117, 453,
  117, 454,
  117, 456,
  117, 458,
  117, 460,
  117, 462,
  117, 464,
  117, 465,
  117, 466,
  117, 468,
  117, 472,
  117, 473,
  117, 477,
  117, 479,
  117, 480,
  117, 481,
  117, 485,
  117, 486,
  117, 491,
  117, 492,
  117, 494,
  117, 495,
  117, 497,
  117, 498,
  117, 499,
  118, 119,
  118, 120,
  118, 121,
  118, 122,
  118, 123,
  118, 125,
  118, 129,
  118, 133,
  118, 134,
  118, 136,
  118, 138,
  118, 140,
  118, 141,
  118, 143,
  118, 145,
  118, 147,
  118, 148,
  118, 149,
  118, 156,
  118, 158,
  118, 162,
  118, 165,
  118, 166,
  118, 168,
  118, 170,
  118, 172,
  118, 174,
  118, 176,
  118, 179,
  118, 180,
  118, 181,
  118, 182,
  118, 183,
  118, 186,
  118, 187,
  118, 188,
  118, 189,
  118, 190,
  118, 194,
  118, 195,
  118, 196,
  118, 197,
  118, 198,
  118, 199,
  118, 200,
  118, 201,
  118, 203,
  118, 207,
  118, 208,
  118, 209,
  118, 210,
  118, 212,
  118, 213,
  118, 221,
  118, 222,
  118, 224,
  118, 226,
  118, 231,
  118, 232,
  118, 233,
  118, 234,
  118, 235,
  118, 244,
  118, 247,
  118, 248,
  118, 249,
  118, 250,
  118, 251,
  118, 253,
  118, 254,
  118, 255,
  118, 256,
  118, 257,
  118, 258,
  118, 260,
  118, 263,
  118, 265,
  118, 266,
  118, 267,
  118, 269,
  118, 274,
  118, 277,
  118, 279,
  118, 282,
  118, 286,
  118, 287,
  118, 288,
  118, 289,
  118, 290,
  118, 294,
  118, 295,
  118, 296,
  118, 297,
  118, 305,
  118, 306,
  118, 307,
  118, 309,
  118, 310,
  118, 311,
  118, 315,
  118, 316,
  118, 318,
  118, 319,
  118, 321,
  118, 326,
  118, 327,
  118, 329,
  118, 330,
  118, 332,
  118, 335,
  118, 337,
  118, 340,
  118, 341,
  118, 342,
  118, 344,
  118, 346,
  118, 350,
  118, 352,
  118, 353,
  118, 354,
  118, 358,
  118, 363,
  118, 364,
  118, 365,
  118, 366,
  118, 367,
  118, 369,
  118, 370,
  118, 371,
  118, 374,
  118, 376,
  118, 377,
  118, 379,
  118, 380,
  118, 382,
  118, 384,
  118, 385,
  118, 386,
  118, 389,
  118, 393,
  118, 394,
  118, 395,
  118, 396,
  118, 397,
  118, 398,
  118, 403,
  118, 404,
  118, 406,
  118, 408,
  118, 414,
  118, 415,
  118, 417,
  118, 418,
  118, 422,
  118, 424,
  118, 426,
  118, 427,
  118, 435,
  118, 438,
  118, 440,
  118, 441,
  118, 443,
  118, 447,
  118, 449,
  118, 450,
  118, 451,
  118, 453,
  118, 458,
  118, 461,
  118, 462,
  118, 463,
  118, 465,
  118, 466,
  118, 467,
  118, 468,
  118, 471,
  118, 473,
  118, 474,
  118, 475,
  118, 476,
  118, 477,
  118, 479,
  118, 482,
  118, 483,
  118, 484,
  118, 489,
  118, 490,
  118, 491,
  118, 492,
  118, 495,
  118, 496,
  118, 498,
  118, 500,
  119, 121,
  119, 122,
  119, 124,
  119, 125,
  119, 128,
  119, 131,
  119, 137,
  119, 138,
  119, 139,
  119, 142,
  119, 143,
  119, 144,
  119, 145,
  119, 146,
  119, 151,
  119, 154,
  119, 156,
  119, 157,
  119, 158,
  119, 159,
  119, 160,
  119, 161,
  119, 162,
  119, 163,
  119, 164,
  119, 166,
  119, 167,
  119, 168,
  119, 169,
  119, 170,
  119, 173,
  119, 179,
  119, 181,
  119, 182,
  119, 183,
  119, 188,
  119, 191,
  119, 194,
  119, 195,
  119, 199,
  119, 200,
  119, 202,
  119, 203,
  119, 204,
  119, 205,
  119, 206,
  119, 207,
  119, 208,
  119, 210,
  119, 211,
  119, 212,
  119, 213,
  119, 223,
  119, 224,
  119, 226,
  119, 228,
  119, 229,
  119, 231,
  119, 232,
  119, 233,
  119, 234,
  119, 238,
  119, 246,
  119, 247,
  119, 249,
  119, 250,
  119, 251,
  119, 252,
  119, 253,
  119, 257,
  119, 258,
  119, 260,
  119, 262,
  119, 264,
  119, 268,
  119, 269,
  119, 270,
  119, 273,
  119, 274,
  119, 276,
  119, 278,
  119, 279,
  119, 282,
  119, 283,
  119, 284,
  119, 285,
  119, 286,
  119, 287,
  119, 288,
  119, 291,
  119, 293,
  119, 299,
  119, 301,
  119, 302,
  119, 307,
  119, 308,
  119, 309,
  119, 311,
  119, 312,
  119, 313,
  119, 317,
  119, 318,
  119, 326,
  119, 327,
  119, 328,
  119, 330,
  119, 331,
  119, 332,
  119, 336,
  119, 337,
  119, 339,
  119, 342,
  119, 345,
  119, 346,
  119, 349,
  119, 355,
  119, 357,
  119, 358,
  119, 361,
  119, 362,
  119, 363,
  119, 364,
  119, 367,
  119, 368,
  119, 369,
  119, 371,
  119, 374,
  119, 379,
  119, 380,
  119, 381,
  119, 386,
  119, 394,
  119, 398,
  119, 399,
  119, 400,
  119, 403,
  119, 404,
  119, 406,
  119, 407,
  119, 409,
  119, 412,
  119, 415,
  119, 419,
  119, 421,
  119, 422,
  119, 424,
  119, 427,
  119, 428,
  119, 431,
  119, 433,
  119, 434,
  119, 435,
  119, 437,
  119, 438,
  119, 440,
  119, 442,
  119, 445,
  119, 446,
  119, 447,
  119, 449,
  119, 450,
  119, 451,
  119, 453,
  119, 454,
  119, 455,
  119, 457,
  119, 459,
  119, 461,
  119, 472,
  119, 473,
  119, 474,
  119, 475,
  119, 479,
  119, 480,
  119, 481,
  119, 482,
  119, 483,
  119, 485,
  119, 486,
  119, 487,
  119, 488,
  119, 491,
  119, 492,
  119, 493,
  119, 494,
  119, 496,
  119, 497,
  119, 498,
  119, 500,
  120, 121,
  120, 123,
  120, 124,
  120, 127,
  120, 128,
  120, 129,
  120, 130,
  120, 131,
  120, 132,
  120, 136,
  120, 137,
  120, 139,
  120, 140,
  120, 142,
  120, 145,
  120, 147,
  120, 148,
  120, 152,
  120, 153,
  120, 155,
  120, 158,
  120, 159,
  120, 160,
  120, 161,
  120, 162,
  120, 163,
  120, 164,
  120, 168,
  120, 169,
  120, 171,
  120, 174,
  120, 181,
  120, 183,
  120, 184,
  120, 185,
  120, 186,
  120, 188,
  120, 192,
  120, 193,
  120, 196,
  120, 197,
  120, 199,
  120, 201,
  120, 202,
  120, 203,
  120, 205,
  120, 208,
  120, 209,
  120, 210,
  120, 211,
  120, 212,
  120, 215,
  120, 217,
  120, 219,
  120, 220,
  120, 221,
  120, 222,
  120, 223,
  120, 224,
  120, 225,
  120, 228,
  120, 230,
  120, 231,
  120, 233,
  120, 239,
  120, 240,
  120, 241,
  120, 245,
  120, 247,
  120, 248,
  120, 255,
  120, 256,
  120, 257,
  120, 259,
  120, 260,
  120, 266,
  120, 271,
  120, 273,
  120, 276,
  120, 277,
  120, 278,
  120, 280,
  120, 283,
  120, 286,
  120, 288,
  120, 293,
  120, 294,
  120, 297,
  120, 298,
  120, 299,
  120, 302,
  120, 303,
  120, 304,
  120, 305,
  120, 306,
  120, 307,
  120, 308,
  120, 309,
  120, 310,
  120, 312,
  120, 313,
  120, 314,
  120, 316,
  120, 317,
  120, 321,
  120, 323,
  120, 326,
  120, 327,
  120, 328,
  120, 332,
  120, 333,
  120, 337,
  120, 338,
  120, 343,
  120, 345,
  120, 346,
  120, 347,
  120, 348,
  120, 350,
  120, 356,
  120, 357,
  120, 359,
  120, 362,
  120, 363,
  120, 366,
  120, 367,
  120, 369,
  120, 371,
  120, 372,
  120, 374,
  120, 375,
  120, 377,
  120, 378,
  120, 379,
  120, 380,
  120, 381,
  120, 383,
  120, 386,
  120, 388,
  120, 393,
  120, 397,
  120, 400,
  120, 404,
  120, 405,
  120, 410,
  120, 411,
  120, 412,
  120, 413,
  120, 417,
  120, 418,
  120, 419,
  120, 424,
  120, 426,
  120, 429,
  120, 431,
  120, 432,
  120, 436,
  120, 437,
  120, 438,
  120, 439,
  120, 440,
  120, 443,
  120, 446,
  120, 447,
  120, 450,
  120, 454,
  120, 461,
  120, 462,
  120, 463,
  120, 464,
  120, 466,
  120, 467,
  120, 469,
  120, 470,
  120, 471,
  120, 472,
  120, 474,
  120, 475,
  120, 477,
  120, 481,
  120, 485,
  120, 487,
  120, 488,
  120, 491,
  120, 493,
  120, 500,
  121, 122,
  121, 123,
  121, 128,
  121, 132,
  121, 135,
  121, 136,
  121, 138,
  121, 140,
  121, 141,
  121, 143,
  121, 147,
  121, 150,
  121, 151,
  121, 152,
  121, 153,
  121, 155,
  121, 156,
  121, 158,
  121, 159,
  121, 166,
  121, 167,
  121, 168,
  121, 169,
  121, 171,
  121, 173,
  121, 174,
  121, 175,
  121, 176,
  121, 177,
  121, 179,
  121, 182,
  121, 183,
  121, 184,
  121, 187,
  121, 188,
  121, 191,
  121, 192,
  121, 193,
  121, 194,
  121, 197,
  121, 198,
  121, 200,
  121, 202,
  121, 204,
  121, 207,
  121, 211,
  121, 213,
  121, 214,
  121, 215,
  121, 216,
  121, 222,
  121, 225,
  121, 227,
  121, 228,
  121, 229,
  121, 233,
  121, 235,
  121, 239,
  121, 243,
  121, 246,
  121, 249,
  121, 252,
  121, 253,
  121, 254,
  121, 255,
  121, 256,
  121, 263,
  121, 264,
  121, 268,
  121, 270,
  121, 271,
  121, 274,
  121, 277,
  121, 280,
  121, 281,
  121, 282,
  121, 283,
  121, 284,
  121, 287,
  121, 288,
  121, 289,
  121, 290,
  121, 291,
  121, 292,
  121, 294,
  121, 295,
  121, 297,
  121, 298,
  121, 299,
  121, 300,
  121, 301,
  121, 302,
  121, 303,
  121, 305,
  121, 307,
  121, 312,
  121, 316,
  121, 317,
  121, 318,
  121, 320,
  121, 321,
  121, 322,
  121, 323,
  121, 324,
  121, 326,
  121, 327,
  121, 328,
  121, 329,
  121, 335,
  121, 336,
  121, 338,
  121, 343,
  121, 344,
  121, 345,
  121, 346,
  121, 348,
  121, 349,
  121, 351,
  121, 352,
  121, 355,
  121, 356,
  121, 357,
  121, 359,
  121, 361,
  121, 362,
  121, 363,
  121, 368,
  121, 371,
  121, 372,
  121, 377,
  121, 378,
  121, 380,
  121, 387,
  121, 390,
  121, 394,
  121, 395,
  121, 398,
  121, 399,
  121, 400,
  121, 401,
  121, 402,
  121, 405,
  121, 406,
  121, 408,
  121, 411,
  121, 415,
  121, 416,
  121, 418,
  121, 423,
  121, 424,
  121, 429,
  121, 430,
  121, 433,
  121, 435,
  121, 438,
  121, 439,
  121, 441,
  121, 442,
  121, 445,
  121, 446,
  121, 448,
  121, 449,
  121, 450,
  121, 451,
  121, 453,
  121, 454,
  121, 455,
  121, 457,
  121, 461,
  121, 463,
  121, 466,
  121, 468,
  121, 469,
  121, 472,
  121, 474,
  121, 475,
  121, 476,
  121, 478,
  121, 479,
  121, 480,
  121, 482,
  121, 483,
  121, 485,
  121, 486,
  121, 487,
  121, 489,
  121, 491,
  121, 492,
  121, 496,
  121, 497,
  122, 123,
  122, 125,
  122, 126,
  122, 127,
  122, 128,
  122, 130,
  122, 131,
  122, 132,
  122, 135,
  122, 137,
  122, 138,
  122, 140,
  122, 141,
  122, 142,
  122, 143,
  122, 144,
  122, 146,
  122, 149,
  122, 150,
  122, 151,
  122, 152,
  122, 154,
  122, 156,
  122, 161,
  122, 163,
  122, 164,
  122, 167,
  122, 168,
  122, 169,
  122, 171,
  122, 174,
  122, 176,
  122, 177,
  122, 180,
  122, 181,
  122, 182,
  122, 185,
  122, 187,
  122, 188,
  122, 193,
  122, 194,
  122, 195,
  122, 196,
  122, 197,
  122, 201,
  122, 202,
  122, 204,
  122, 207,
  122, 208,
  122, 209,
  122, 211,
  122, 212,
  122, 213,
  122, 214,
  122, 218,
  122, 219,
  122, 221,
  122, 223,
  122, 225,
  122, 228,
  122, 230,
  122, 231,
  122, 232,
  122, 233,
  122, 234,
  122, 238,
  122, 240,
  122, 243,
  122, 244,
  122, 247,
  122, 248,
  122, 252,
  122, 253,
  122, 254,
  122, 255,
  122, 259,
  122, 260,
  122, 261,
  122, 262,
  122, 265,
  122, 267,
  122, 269,
  122, 271,
  122, 272,
  122, 274,
  122, 275,
  122, 278,
  122, 279,
  122, 281,
  122, 286,
  122, 288,
  122, 292,
  122, 294,
  122, 295,
  122, 296,
  122, 298,
  122, 299,
  122, 308,
  122, 309,
  122, 310,
  122, 311,
  122, 312,
  122, 315,
  122, 320,
  122, 325,
  122, 327,
  122, 328,
  122, 330,
  122, 331,
  122, 332,
  122, 335,
  122, 337,
  122, 338,
  122, 345,
  122, 347,
  122, 351,
  122, 354,
  122, 356,
  122, 361,
  122, 362,
  122, 365,
  122, 371,
  122, 373,
  122, 379,
  122, 380,
  122, 384,
  122, 387,
  122, 388,
  122, 391,
  122, 394,
  122, 395,
  122, 397,
  122, 398,
  122, 399,
  122, 402,
  122, 403,
  122, 404,
  122, 405,
  122, 406,
  122, 409,
  122, 414,
  122, 415,
  122, 418,
  122, 422,
  122, 425,
  122, 427,
  122, 428,
  122, 431,
  122, 434,
  122, 435,
  122, 436,
  122, 437,
  122, 439,
  122, 444,
  122, 445,
  122, 446,
  122, 448,
  122, 449,
  122, 450,
  122, 451,
  122, 454,
  122, 455,
  122, 457,
  122, 458,
  122, 459,
  122, 463,
  122, 466,
  122, 467,
  122, 472,
  122, 473,
  122, 474,
  122, 475,
  122, 477,
  122, 479,
  122, 480,
  122, 483,
  122, 486,
  122, 490,
  122, 493,
  122, 494,
  122, 495,
  122, 498,
  123, 125,
  123, 126,
  123, 128,
  123, 131,
  123, 134,
  123, 135,
  123, 136,
  123, 138,
  123, 139,
  123, 140,
  123, 142,
  123, 143,
  123, 145,
  123, 147,
  123, 149,
  123, 152,
  123, 155,
  123, 159,
  123, 160,
  123, 161,
  123, 165,
  123, 168,
  123, 170,
  123, 178,
  123, 180,
  123, 182,
  123, 183,
  123, 186,
  123, 187,
  123, 188,
  123, 190,
  123, 192,
  123, 193,
  123, 194,
  123, 195,
  123, 196,
  123, 198,
  123, 201,
  123, 202,
  123, 203,
  123, 207,
  123, 210,
  123, 212,
  123, 215,
  123, 216,
  123, 218,
  123, 219,
  123, 221,
  123, 226,
  123, 227,
  123, 228,
  123, 230,
  123, 231,
  123, 235,
  123, 237,
  123, 239,
  123, 241,
  123, 243,
  123, 247,
  123, 248,
  123, 250,
  123, 251,
  123, 254,
  123, 255,
  123, 258,
  123, 259,
  123, 262,
  123, 263,
  123, 264,
  123, 265,
  123, 266,
  123, 269,
  123, 270,
  123, 271,
  123, 273,
  123, 274,
  123, 275,
  123, 280,
  123, 282,
  123, 283,
  123, 284,
  123, 287,
  123, 288,
  123, 292,
  123, 299,
  123, 300,
  123, 302,
  123, 305,
  123, 308,
  123, 309,
  123, 312,
  123, 313,
  123, 314,
  123, 315,
  123, 321,
  123, 323,
  123, 326,
  123, 328,
  123, 330,
  123, 331,
  123, 334,
  123, 335,
  123, 336,
  123, 338,
  123, 339,
  123, 340,
  123, 341,
  123, 342,
  123, 344,
  123, 345,
  123, 346,
  123, 350,
  123, 351,
  123, 353,
  123, 355,
  123, 357,
  123, 359,
  123, 360,
  123, 363,
  123, 365,
  123, 367,
  123, 369,
  123, 370,
  123, 374,
  123, 386,
  123, 387,
  123, 389,
  123, 390,
  123, 391,
  123, 392,
  123, 393,
  123, 395,
  123, 397,
  123, 398,
  123, 399,
  123, 402,
  123, 403,
  123, 410,
  123, 412,
  123, 414,
  123, 418,
  123, 423,
  123, 424,
  123, 425,
  123, 427,
  123, 429,
  123, 430,
  123, 434,
  123, 435,
  123, 437,
  123, 438,
  123, 439,
  123, 440,
  123, 445,
  123, 446,
  123, 450,
  123, 451,
  123, 452,
  123, 455,
  123, 459,
  123, 461,
  123, 464,
  123, 466,
  123, 471,
  123, 472,
  123, 473,
  123, 475,
  123, 476,
  123, 477,
  123, 479,
  123, 480,
  123, 482,
  123, 484,
  123, 487,
  123, 488,
  123, 492,
  123, 495,
  123, 498,
  123, 499,
  123, 500,
  124, 127,
  124, 131,
  124, 132,
  124, 135,
  124, 136,
  124, 138,
  124, 139,
  124, 140,
  124, 141,
  124, 142,
  124, 143,
  124, 145,
  124, 147,
  124, 148,
  124, 152,
  124, 153,
  124, 154,
  124, 156,
  124, 157,
  124, 158,
  124, 161,
  124, 163,
  124, 164,
  124, 167,
  124, 168,
  124, 169,
  124, 173,
  124, 174,
  124, 175,
  124, 176,
  124, 178,
  124, 180,
  124, 182,
  124, 184,
  124, 185,
  124, 186,
  124, 187,
  124, 189,
  124, 193,
  124, 195,
  124, 197,
  124, 201,
  124, 202,
  124, 204,
  124, 205,
  124, 209,
  124, 210,
  124, 213,
  124, 215,
  124, 216,
  124, 217,
  124, 222,
  124, 224,
  124, 226,
  124, 227,
  124, 228,
  124, 232,
  124, 233,
  124, 238,
  124, 241,
  124, 243,
  124, 244,
  124, 246,
  124, 250,
  124, 251,
  124, 252,
  124, 254,
  124, 256,
  124, 258,
  124, 259,
  124, 260,
  124, 261,
  124, 263,
  124, 265,
  124, 268,
  124, 269,
  124, 271,
  124, 272,
  124, 276,
  124, 277,
  124, 287,
  124, 295,
  124, 296,
  124, 297,
  124, 299,
  124, 301,
  124, 302,
  124, 303,
  124, 304,
  124, 307,
  124, 308,
  124, 311,
  124, 312,
  124, 313,
  124, 318,
  124, 320,
  124, 323,
  124, 324,
  124, 325,
  124, 326,
  124, 327,
  124, 328,
  124, 333,
  124, 334,
  124, 337,
  124, 338,
  124, 344,
  124, 345,
  124, 346,
  124, 349,
  124, 350,
  124, 353,
  124, 354,
  124, 356,
  124, 358,
  124, 360,
  124, 362,
  124, 366,
  124, 367,
  124, 368,
  124, 369,
  124, 371,
  124, 373,
  124, 375,
  124, 376,
  124, 377,
  124, 380,
  124, 381,
  124, 382,
  124, 383,
  124, 386,
  124, 387,
  124, 393,
  124, 395,
  124, 398,
  124, 403,
  124, 406,
  124, 407,
  124, 409,
  124, 413,
  124, 414,
  124, 417,
  124, 418,
  124, 423,
  124, 424,
  124, 425,
  124, 426,
  124, 429,
  124, 434,
  124, 435,
  124, 436,
  124, 440,
  124, 441,
  124, 443,
  124, 445,
  124, 446,
  124, 448,
  124, 450,
  124, 456,
  124, 457,
  124, 460,
  124, 461,
  124, 462,
  124, 465,
  124, 466,
  124, 469,
  124, 470,
  124, 471,
  124, 472,
  124, 474,
  124, 476,
  124, 477,
  124, 479,
  124, 480,
  124, 481,
  124, 482,
  124, 484,
  124, 487,
  124, 488,
  124, 491,
  124, 493,
  124, 494,
  124, 495,
  124, 497,
  124, 498,
  124, 499,
  124, 500,
  125, 126,
  125, 127,
  125, 130,
  125, 133,
  125, 134,
  125, 135,
  125, 136,
  125, 137,
  125, 138,
  125, 139,
  125, 140,
  125, 141,
  125, 143,
  125, 151,
  125, 155,
  125, 156,
  125, 158,
  125, 159,
  125, 162,
  125, 164,
  125, 168,
  125, 170,
  125, 171,
  125, 172,
  125, 174,
  125, 176,
  125, 177,
  125, 181,
  125, 182,
  125, 183,
  125, 185,
  125, 186,
  125, 191,
  125, 192,
  125, 193,
  125, 194,
  125, 195,
  125, 196,
  125, 199,
  125, 200,
  125, 201,
  125, 202,
  125, 203,
  125, 204,
  125, 205,
  125, 208,
  125, 209,
  125, 212,
  125, 216,
  125, 218,
  125, 219,
  125, 220,
  125, 224,
  125, 226,
  125, 228,
  125, 230,
  125, 233,
  125, 235,
  125, 238,
  125, 240,
  125, 241,
  125, 243,
  125, 244,
  125, 245,
  125, 246,
  125, 250,
  125, 253,
  125, 256,
  125, 258,
  125, 259,
  125, 260,
  125, 261,
  125, 263,
  125, 264,
  125, 265,
  125, 270,
  125, 271,
  125, 272,
  125, 275,
  125, 276,
  125, 277,
  125, 279,
  125, 281,
  125, 283,
  125, 287,
  125, 291,
  125, 292,
  125, 295,
  125, 297,
  125, 300,
  125, 303,
  125, 307,
  125, 309,
  125, 310,
  125, 311,
  125, 312,
  125, 315,
  125, 316,
  125, 317,
  125, 318,
  125, 319,
  125, 324,
  125, 327,
  125, 328,
  125, 330,
  125, 332,
  125, 333,
  125, 335,
  125, 336,
  125, 337,
  125, 338,
  125, 339,
  125, 340,
  125, 341,
  125, 344,
  125, 346,
  125, 350,
  125, 351,
  125, 353,
  125, 355,
  125, 356,
  125, 358,
  125, 359,
  125, 367,
  125, 368,
  125, 372,
  125, 373,
  125, 374,
  125, 380,
  125, 382,
  125, 384,
  125, 385,
  125, 387,
  125, 389,
  125, 390,
  125, 394,
  125, 395,
  125, 398,
  125, 399,
  125, 403,
  125, 404,
  125, 405,
  125, 406,
  125, 409,
  125, 412,
  125, 414,
  125, 415,
  125, 416,
  125, 417,
  125, 419,
  125, 420,
  125, 421,
  125, 423,
  125, 424,
  125, 425,
  125, 426,
  125, 427,
  125, 428,
  125, 432,
  125, 434,
  125, 439,
  125, 440,
  125, 441,
  125, 442,
  125, 444,
  125, 445,
  125, 446,
  125, 447,
  125, 451,
  125, 453,
  125, 454,
  125, 455,
  125, 460,
  125, 462,
  125, 463,
  125, 464,
  125, 465,
  125, 467,
  125, 469,
  125, 478,
  125, 479,
  125, 481,
  125, 484,
  125, 487,
  125, 490,
  125, 491,
  125, 492,
  125, 495,
  125, 498,
  125, 499,
  125, 500,
  126, 127,
  126, 129,
  126, 130,
  126, 131,
  126, 135,
  126, 137,
  126, 139,
  126, 144,
  126, 147,
  126, 148,
  126, 151,
  126, 152,
  126, 153,
  126, 157,
  126, 158,
  126, 159,
  126, 162,
  126, 163,
  126, 166,
  126, 170,
  126, 171,
  126, 172,
  126, 173,
  126, 178,
  126, 179,
  126, 181,
  126, 184,
  126, 188,
  126, 189,
  126, 190,
  126, 192,
  126, 193,
  126, 194,
  126, 196,
  126, 197,
  126, 207,
  126, 208,
  126, 209,
  126, 212,
  126, 213,
  126, 215,
  126, 216,
  126, 219,
  126, 221,
  126, 224,
  126, 225,
  126, 231,
  126, 234,
  126, 236,
  126, 238,
  126, 239,
  126, 240,
  126, 241,
  126, 242,
  126, 243,
  126, 244,
  126, 245,
  126, 249,
  126, 251,
  126, 254,
  126, 257,
  126, 258,
  126, 259,
  126, 260,
  126, 261,
  126, 262,
  126, 263,
  126, 264,
  126, 265,
  126, 267,
  126, 268,
  126, 270,
  126, 271,
  126, 272,
  126, 273,
  126, 274,
  126, 275,
  126, 276,
  126, 277,
  126, 279,
  126, 283,
  126, 284,
  126, 287,
  126, 288,
  126, 289,
  126, 290,
  126, 297,
  126, 298,
  126, 303,
  126, 304,
  126, 307,
  126, 310,
  126, 314,
  126, 318,
  126, 319,
  126, 320,
  126, 322,
  126, 323,
  126, 325,
  126, 327,
  126, 329,
  126, 330,
  126, 334,
  126, 337,
  126, 339,
  126, 340,
  126, 341,
  126, 345,
  126, 346,
  126, 354,
  126, 355,
  126, 356,
  126, 357,
  126, 359,
  126, 360,
  126, 362,
  126, 363,
  126, 364,
  126, 365,
  126, 369,
  126, 371,
  126, 373,
  126, 376,
  126, 377,
  126, 379,
  126, 382,
  126, 386,
  126, 387,
  126, 388,
  126, 392,
  126, 393,
  126, 394,
  126, 395,
  126, 396,
  126, 398,
  126, 401,
  126, 405,
  126, 411,
  126, 414,
  126, 416,
  126, 417,
  126, 418,
  126, 419,
  126, 420,
  126, 421,
  126, 422,
  126, 423,
  126, 424,
  126, 426,
  126, 427,
  126, 428,
  126, 429,
  126, 430,
  126, 431,
  126, 434,
  126, 436,
  126, 437,
  126, 440,
  126, 441,
  126, 442,
  126, 445,
  126, 447,
  126, 448,
  126, 452,
  126, 453,
  126, 454,
  126, 456,
  126, 458,
  126, 459,
  126, 461,
  126, 462,
  126, 463,
  126, 466,
  126, 468,
  126, 469,
  126, 471,
  126, 472,
  126, 473,
  126, 474,
  126, 477,
  126, 480,
  126, 482,
  126, 485,
  126, 487,
  126, 488,
  126, 489,
  126, 490,
  126, 491,
  126, 493,
  126, 495,
  126, 500,
  127, 128,
  127, 133,
  127, 135,
  127, 136,
  127, 143,
  127, 145,
  127, 147,
  127, 148,
  127, 150,
  127, 152,
  127, 154,
  127, 155,
  127, 158,
  127, 161,
  127, 162,
  127, 164,
  127, 166,
  127, 169,
  127, 170,
  127, 173,
  127, 174,
  127, 178,
  127, 179,
  127, 180,
  127, 185,
  127, 187,
  127, 188,
  127, 189,
  127, 190,
  127, 193,
  127, 195,
  127, 196,
  127, 201,
  127, 202,
  127, 204,
  127, 206,
  127, 209,
  127, 212,
  127, 213,
  127, 215,
  127, 217,
  127, 218,
  127, 223,
  127, 224,
  127, 227,
  127, 228,
  127, 229,
  127, 230,
  127, 232,
  127, 237,
  127, 239,
  127, 241,
  127, 242,
  127, 243,
  127, 244,
  127, 245,
  127, 247,
  127, 248,
  127, 250,
  127, 251,
  127, 252,
  127, 253,
  127, 256,
  127, 260,
  127, 264,
  127, 265,
  127, 266,
  127, 268,
  127, 269,
  127, 273,
  127, 274,
  127, 277,
  127, 279,
  127, 281,
  127, 282,
  127, 283,
  127, 288,
  127, 289,
  127, 290,
  127, 291,
  127, 292,
  127, 293,
  127, 295,
  127, 299,
  127, 300,
  127, 302,
  127, 303,
  127, 304,
  127, 305,
  127, 306,
  127, 308,
  127, 309,
  127, 310,
  127, 311,
  127, 312,
  127, 313,
  127, 316,
  127, 317,
  127, 318,
  127, 319,
  127, 321,
  127, 324,
  127, 325,
  127, 327,
  127, 334,
  127, 337,
  127, 339,
  127, 341,
  127, 342,
  127, 343,
  127, 346,
  127, 350,
  127, 354,
  127, 355,
  127, 358,
  127, 359,
  127, 361,
  127, 363,
  127, 364,
  127, 365,
  127, 366,
  127, 368,
  127, 370,
  127, 371,
  127, 373,
  127, 376,
  127, 380,
  127, 383,
  127, 384,
  127, 385,
  127, 389,
  127, 390,
  127, 392,
  127, 395,
  127, 396,
  127, 398,
  127, 401,
  127, 403,
  127, 405,
  127, 407,
  127, 408,
  127, 409,
  127, 411,
  127, 415,
  127, 416,
  127, 417,
  127, 418,
  127, 419,
  127, 420,
  127, 421,
  127, 422,
  127, 424,
  127, 425,
  127, 426,
  127, 433,
  127, 434,
  127, 435,
  127, 443,
  127, 445,
  127, 446,
  127, 448,
  127, 450,
  127, 452,
  127, 453,
  127, 454,
  127, 456,
  127, 457,
  127, 458,
  127, 459,
  127, 462,
  127, 467,
  127, 470,
  127, 471,
  127, 473,
  127, 476,
  127, 477,
  127, 479,
  127, 480,
  127, 481,
  127, 485,
  127, 488,
  127, 490,
  127, 491,
  127, 493,
  127, 497,
  128, 131,
  128, 133,
  128, 134,
  128, 137,
  128, 139,
  128, 140,
  128, 141,
  128, 142,
  128, 144,
  128, 146,
  128, 147,
  128, 149,
  128, 153,
  128, 154,
  128, 156,
  128, 157,
  128, 158,
  128, 159,
  128, 164,
  128, 168,
  128, 170,
  128, 172,
  128, 179,
  128, 180,
  128, 181,
  128, 185,
  128, 186,
  128, 188,
  128, 189,
  128, 190,
  128, 192,
  128, 193,
  128, 194,
  128, 199,
  128, 201,
  128, 202,
  128, 203,
  128, 204,
  128, 206,
  128, 207,
  128, 210,
  128, 211,
  128, 214,
  128, 215,
  128, 217,
  128, 218,
  128, 219,
  128, 221,
  128, 223,
  128, 224,
  128, 225,
  128, 226,
  128, 227,
  128, 230,
  128, 231,
  128, 235,
  128, 236,
  128, 242,
  128, 243,
  128, 244,
  128, 245,
  128, 248,
  128, 250,
  128, 253,
  128, 254,
  128, 255,
  128, 256,
  128, 257,
  128, 258,
  128, 262,
  128, 263,
  128, 265,
  128, 266,
  128, 267,
  128, 268,
  128, 269,
  128, 271,
  128, 276,
  128, 277,
  128, 279,
  128, 280,
  128, 281,
  128, 282,
  128, 283,
  128, 286,
  128, 289,
  128, 290,
  128, 293,
  128, 294,
  128, 295,
  128, 299,
  128, 301,
  128, 302,
  128, 303,
  128, 306,
  128, 307,
  128, 308,
  128, 310,
  128, 311,
  128, 314,
  128, 316,
  128, 317,
  128, 318,
  128, 321,
  128, 322,
  128, 323,
  128, 324,
  128, 334,
  128, 335,
  128, 336,
  128, 337,
  128, 338,
  128, 340,
  128, 344,
  128, 345,
  128, 346,
  128, 347,
  128, 348,
  128, 349,
  128, 351,
  128, 354,
  128, 356,
  128, 362,
  128, 363,
  128, 365,
  128, 370,
  128, 371,
  128, 372,
  128, 374,
  128, 375,
  128, 376,
  128, 377,
  128, 379,
  128, 381,
  128, 387,
  128, 390,
  128, 393,
  128, 394,
  128, 396,
  128, 398,
  128, 402,
  128, 404,
  128, 408,
  128, 410,
  128, 411,
  128, 413,
  128, 417,
  128, 418,
  128, 419,
  128, 421,
  128, 422,
  128, 423,
  128, 425,
  128, 426,
  128, 427,
  128, 428,
  128, 429,
  128, 432,
  128, 433,
  128, 436,
  128, 443,
  128, 446,
  128, 449,
  128, 451,
  128, 454,
  128, 455,
  128, 461,
  128, 463,
  128, 465,
  128, 467,
  128, 470,
  128, 471,
  128, 472,
  128, 473,
  128, 475,
  128, 476,
  128, 477,
  128, 478,
  128, 480,
  128, 482,
  128, 484,
  128, 490,
  128, 491,
  128, 494,
  128, 495,
  128, 496,
  128, 499,
  128, 500,
  129, 130,
  129, 133,
  129, 134,
  129, 136,
  129, 140,
  129, 144,
  129, 146,
  129, 147,
  129, 148,
  129, 149,
  129, 152,
  129, 154,
  129, 155,
  129, 156,
  129, 157,
  129, 158,
  129, 159,
  129, 162,
  129, 163,
  129, 165,
  129, 166,
  129, 169,
  129, 171,
  129, 173,
  129, 174,
  129, 175,
  129, 185,
  129, 186,
  129, 188,
  129, 189,
  129, 190,
  129, 191,
  129, 195,
  129, 197,
  129, 198,
  129, 199,
  129, 200,
  129, 201,
  129, 203,
  129, 204,
  129, 208,
  129, 211,
  129, 213,
  129, 214,
  129, 216,
  129, 219,
  129, 220,
  129, 221,
  129, 223,
  129, 224,
  129, 225,
  129, 226,
  129, 230,
  129, 231,
  129, 232,
  129, 233,
  129, 234,
  129, 235,
  129, 236,
  129, 237,
  129, 240,
  129, 241,
  129, 244,
  129, 245,
  129, 250,
  129, 255,
  129, 256,
  129, 259,
  129, 261,
  129, 262,
  129, 266,
  129, 267,
  129, 269,
  129, 271,
  129, 272,
  129, 274,
  129, 276,
  129, 279,
  129, 280,
  129, 281,
  129, 282,
  129, 286,
  129, 290,
  129, 291,
  129, 293,
  129, 297,
  129, 298,
  129, 302,
  129, 304,
  129, 305,
  129, 306,
  129, 308,
  129, 309,
  129, 310,
  129, 311,
  129, 315,
  129, 316,
  129, 318,
  129, 320,
  129, 321,
  129, 322,
  129, 323,
  129, 324,
  129, 326,
  129, 328,
  129, 329,
  129, 332,
  129, 333,
  129, 335,
  129, 336,
  129, 340,
  129, 341,
  129, 347,
  129, 349,
  129, 350,
  129, 351,
  129, 352,
  129, 353,
  129, 355,
  129, 356,
  129, 357,
  129, 358,
  129, 360,
  129, 362,
  129, 363,
  129, 364,
  129, 369,
  129, 370,
  129, 372,
  129, 374,
  129, 377,
  129, 378,
  129, 379,
  129, 380,
  129, 383,
  129, 385,
  129, 387,
  129, 388,
  129, 389,
  129, 391,
  129, 394,
  129, 397,
  129, 398,
  129, 400,
  129, 401,
  129, 404,
  129, 409,
  129, 411,
  129, 412,
  129, 413,
  129, 414,
  129, 415,
  129, 416,
  129, 417,
  129, 422,
  129, 423,
  129, 428,
  129, 429,
  129, 431,
  129, 435,
  129, 436,
  129, 437,
  129, 438,
  129, 439,
  129, 442,
  129, 443,
  129, 444,
  129, 451,
  129, 454,
  129, 458,
  129, 459,
  129, 460,
  129, 462,
  129, 463,
  129, 465,
  129, 467,
  129, 471,
  129, 472,
  129, 474,
  129, 477,
  129, 479,
  129, 480,
  129, 481,
  129, 482,
  129, 483,
  129, 484,
  129, 488,
  129, 489,
  129, 490,
  129, 493,
  129, 494,
  129, 495,
  129, 498,
  129, 499,
  130, 134,
  130, 137,
  130, 138,
  130, 142,
  130, 145,
  130, 147,
  130, 151,
  130, 154,
  130, 156,
  130, 157,
  130, 159,
  130, 160,
  130, 162,
  130, 166,
  130, 167,
  130, 169,
  130, 172,
  130, 176,
  130, 177,
  130, 178,
  130, 181,
  130, 184,
  130, 185,
  130, 187,
  130, 189,
  130, 190,
  130, 194,
  130, 195,
  130, 196,
  130, 197,
  130, 200,
  130, 201,
  130, 202,
  130, 203,
  130, 204,
  130, 205,
  130, 206,
  130, 207,
  130, 209,
  130, 213,
  130, 214,
  130, 215,
  130, 217,
  130, 220,
  130, 221,
  130, 224,
  130, 225,
  130, 226,
  130, 233,
  130, 235,
  130, 236,
  130, 237,
  130, 238,
  130, 239,
  130, 240,
  130, 243,
  130, 244,
  130, 247,
  130, 253,
  130, 255,
  130, 256,
  130, 257,
  130, 259,
  130, 260,
  130, 262,
  130, 263,
  130, 266,
  130, 269,
  130, 270,
  130, 271,
  130, 274,
  130, 276,
  130, 279,
  130, 280,
  130, 284,
  130, 285,
  130, 288,
  130, 289,
  130, 290,
  130, 291,
  130, 292,
  130, 295,
  130, 297,
  130, 302,
  130, 303,
  130, 304,
  130, 306,
  130, 308,
  130, 310,
  130, 311,
  130, 312,
  130, 316,
  130, 318,
  130, 319,
  130, 320,
  130, 321,
  130, 322,
  130, 323,
  130, 324,
  130, 325,
  130, 326,
  130, 329,
  130, 331,
  130, 332,
  130, 336,
  130, 337,
  130, 338,
  130, 340,
  130, 342,
  130, 345,
  130, 346,
  130, 347,
  130, 348,
  130, 349,
  130, 352,
  130, 353,
  130, 354,
  130, 355,
  130, 356,
  130, 358,
  130, 360,
  130, 362,
  130, 363,
  130, 364,
  130, 365,
  130, 366,
  130, 367,
  130, 371,
  130, 373,
  130, 375,
  130, 379,
  130, 382,
  130, 384,
  130, 385,
  130, 386,
  130, 387,
  130, 389,
  130, 390,
  130, 394,
  130, 395,
  130, 396,
  130, 398,
  130, 399,
  130, 402,
  130, 405,
  130, 407,
  130, 409,
  130, 410,
  130, 411,
  130, 413,
  130, 414,
  130, 415,
  130, 416,
  130, 419,
  130, 421,
  130, 422,
  130, 426,
  130, 427,
  130, 429,
  130, 430,
  130, 432,
  130, 434,
  130, 435,
  130, 436,
  130, 437,
  130, 440,
  130, 443,
  130, 444,
  130, 453,
  130, 454,
  130, 455,
  130, 456,
  130, 457,
  130, 460,
  130, 461,
  130, 463,
  130, 464,
  130, 465,
  130, 468,
  130, 471,
  130, 472,
  130, 474,
  130, 476,
  130, 478,
  130, 479,
  130, 485,
  130, 486,
  130, 487,
  130, 488,
  130, 490,
  130, 492,
  130, 493,
  130, 494,
  130, 495,
  130, 496,
  131, 132,
  131, 133,
  131, 134,
  131, 135,
  131, 137,
  131, 139,
  131, 144,
  131, 145,
  131, 148,
  131, 150,
  131, 153,
  131, 155,
  131, 157,
  131, 159,
  131, 163,
  131, 164,
  131, 168,
  131, 169,
  131, 171,
  131, 172,
  131, 174,
  131, 175,
  131, 176,
  131, 178,
  131, 179,
  131, 180,
  131, 182,
  131, 183,
  131, 185,
  131, 186,
  131, 188,
  131, 191,
  131, 197,
  131, 200,
  131, 201,
  131, 202,
  131, 203,
  131, 204,
  131, 205,
  131, 206,
  131, 210,
  131, 215,
  131, 216,
  131, 217,
  131, 218,
  131, 220,
  131, 222,
  131, 224,
  131, 225,
  131, 228,
  131, 234,
  131, 236,
  131, 237,
  131, 241,
  131, 245,
  131, 246,
  131, 250,
  131, 253,
  131, 254,
  131, 258,
  131, 262,
  131, 264,
  131, 267,
  131, 269,
  131, 273,
  131, 276,
  131, 278,
  131, 279,
  131, 281,
  131, 282,
  131, 283,
  131, 285,
  131, 286,
  131, 287,
  131, 290,
  131, 291,
  131, 292,
  131, 293,
  131, 295,
  131, 299,
  131, 300,
  131, 301,
  131, 304,
  131, 305,
  131, 306,
  131, 307,
  131, 308,
  131, 310,
  131, 312,
  131, 313,
  131, 314,
  131, 318,
  131, 320,
  131, 322,
  131, 323,
  131, 326,
  131, 327,
  131, 329,
  131, 330,
  131, 332,
  131, 336,
  131, 337,
  131, 338,
  131, 340,
  131, 341,
  131, 343,
  131, 344,
  131, 345,
  131, 346,
  131, 349,
  131, 352,
  131, 354,
  131, 355,
  131, 356,
  131, 359,
  131, 361,
  131, 362,
  131, 363,
  131, 364,
  131, 365,
  131, 367,
  131, 370,
  131, 372,
  131, 380,
  131, 381,
  131, 384,
  131, 385,
  131, 388,
  131, 391,
  131, 392,
  131, 394,
  131, 395,
  131, 396,
  131, 398,
  131, 399,
  131, 400,
  131, 402,
  131, 403,
  131, 404,
  131, 410,
  131, 411,
  131, 413,
  131, 414,
  131, 418,
  131, 419,
  131, 420,
  131, 422,
  131, 428,
  131, 431,
  131, 432,
  131, 434,
  131, 437,
  131, 439,
  131, 441,
  131, 442,
  131, 444,
  131, 446,
  131, 448,
  131, 450,
  131, 452,
  131, 453,
  131, 454,
  131, 456,
  131, 457,
  131, 464,
  131, 466,
  131, 468,
  131, 471,
  131, 473,
  131, 474,
  131, 479,
  131, 480,
  131, 483,
  131, 485,
  131, 486,
  131, 487,
  131, 489,
  131, 493,
  131, 494,
  131, 496,
  131, 498,
  131, 499,
  132, 134,
  132, 136,
  132, 139,
  132, 140,
  132, 142,
  132, 143,
  132, 147,
  132, 150,
  132, 152,
  132, 153,
  132, 158,
  132, 163,
  132, 166,
  132, 167,
  132, 168,
  132, 171,
  132, 172,
  132, 174,
  132, 175,
  132, 176,
  132, 178,
  132, 180,
  132, 181,
  132, 182,
  132, 183,
  132, 185,
  132, 186,
  132, 187,
  132, 189,
  132, 191,
  132, 192,
  132, 193,
  132, 196,
  132, 199,
  132, 204,
  132, 206,
  132, 207,
  132, 212,
  132, 217,
  132, 218,
  132, 219,
  132, 220,
  132, 221,
  132, 223,
  132, 224,
  132, 226,
  132, 227,
  132, 229,
  132, 230,
  132, 232,
  132, 233,
  132, 234,
  132, 235,
  132, 236,
  132, 237,
  132, 239,
  132, 240,
  132, 242,
  132, 243,
  132, 244,
  132, 247,
  132, 248,
  132, 250,
  132, 255,
  132, 256,
  132, 257,
  132, 259,
  132, 260,
  132, 261,
  132, 262,
  132, 263,
  132, 264,
  132, 268,
  132, 272,
  132, 273,
  132, 275,
  132, 279,
  132, 280,
  132, 281,
  132, 282,
  132, 283,
  132, 285,
  132, 286,
  132, 287,
  132, 289,
  132, 291,
  132, 292,
  132, 295,
  132, 296,
  132, 298,
  132, 306,
  132, 307,
  132, 309,
  132, 313,
  132, 314,
  132, 315,
  132, 316,
  132, 320,
  132, 324,
  132, 325,
  132, 328,
  132, 329,
  132, 330,
  132, 331,
  132, 334,
  132, 341,
  132, 342,
  132, 343,
  132, 344,
  132, 345,
  132, 346,
  132, 347,
  132, 348,
  132, 350,
  132, 353,
  132, 354,
  132, 356,
  132, 357,
  132, 361,
  132, 365,
  132, 366,
  132, 368,
  132, 369,
  132, 372,
  132, 373,
  132, 375,
  132, 378,
  132, 383,
  132, 386,
  132, 387,
  132, 388,
  132, 389,
  132, 392,
  132, 396,
  132, 397,
  132, 398,
  132, 400,
  132, 401,
  132, 402,
  132, 404,
  132, 405,
  132, 406,
  132, 409,
  132, 415,
  132, 417,
  132, 419,
  132, 420,
  132, 425,
  132, 427,
  132, 429,
  132, 430,
  132, 431,
  132, 432,
  132, 435,
  132, 436,
  132, 438,
  132, 442,
  132, 444,
  132, 447,
  132, 448,
  132, 450,
  132, 451,
  132, 453,
  132, 455,
  132, 458,
  132, 459,
  132, 463,
  132, 464,
  132, 465,
  132, 466,
  132, 467,
  132, 468,
  132, 469,
  132, 474,
  132, 477,
  132, 479,
  132, 481,
  132, 482,
  132, 483,
  132, 484,
  132, 485,
  132, 486,
  132, 491,
  132, 493,
  132, 496,
  132, 497,
  132, 500,
  133, 140,
  133, 143,
  133, 144,
  133, 146,
  133, 148,
  133, 149,
  133, 152,
  133, 153,
  133, 154,
  133, 158,
  133, 159,
  133, 164,
  133, 165,
  133, 166,
  133, 169,
  133, 171,
  133, 173,
  133, 174,
  133, 175,
  133, 176,
  133, 182,
  133, 187,
  133, 188,
  133, 190,
  133, 196,
  133, 197,
  133, 200,
  133, 202,
  133, 203,
  133, 205,
  133, 207,
  133, 209,
  133, 210,
  133, 213,
  133, 215,
  133, 217,
  133, 218,
  133, 222,
  133, 223,
  133, 226,
  133, 228,
  133, 229,
  133, 231,
  133, 233,
  133, 234,
  133, 235,
  133, 237,
  133, 239,
  133, 240,
  133, 241,
  133, 244,
  133, 246,
  133, 247,
  133, 249,
  133, 251,
  133, 252,
  133, 256,
  133, 260,
  133, 267,
  133, 271,
  133, 272,
  133, 273,
  133, 275,
  133, 276,
  133, 277,
  133, 278,
  133, 280,
  133, 281,
  133, 284,
  133, 285,
  133, 289,
  133, 290,
  133, 294,
  133, 295,
  133, 296,
  133, 297,
  133, 298,
  133, 301,
  133, 302,
  133, 303,
  133, 306,
  133, 307,
  133, 308,
  133, 311,
  133, 314,
  133, 317,
  133, 319,
  133, 320,
  133, 321,
  133, 323,
  133, 325,
  133, 326,
  133, 332,
  133, 333,
  133, 334,
  133, 335,
  133, 339,
  133, 342,
  133, 343,
  133, 345,
  133, 346,
  133, 350,
  133, 351,
  133, 353,
  133, 356,
  133, 362,
  133, 364,
  133, 365,
  133, 366,
  133, 370,
  133, 372,
  133, 373,
  133, 376,
  133, 378,
  133, 380,
  133, 381,
  133, 382,
  133, 383,
  133, 385,
  133, 393,
  133, 394,
  133, 395,
  133, 396,
  133, 397,
  133, 399,
  133, 403,
  133, 405,
  133, 406,
  133, 407,
  133, 409,
  133, 412,
  133, 413,
  133, 416,
  133, 419,
  133, 420,
  133, 424,
  133, 426,
  133, 427,
  133, 429,
  133, 430,
  133, 431,
  133, 433,
  133, 434,
  133, 435,
  133, 439,
  133, 441,
  133, 443,
  133, 444,
  133, 445,
  133, 447,
  133, 448,
  133, 451,
  133, 453,
  133, 455,
  133, 458,
  133, 460,
  133, 462,
  133, 464,
  133, 466,
  133, 467,
  133, 468,
  133, 469,
  133, 470,
  133, 472,
  133, 473,
  133, 474,
  133, 476,
  133, 478,
  133, 479,
  133, 480,
  133, 481,
  133, 483,
  133, 487,
  133, 488,
  133, 489,
  133, 492,
  133, 493,
  133, 495,
  133, 497,
  133, 499,
  133, 500,
  134, 136,
  134, 137,
  134, 140,
  134, 142,
  134, 144,
  134, 147,
  134, 148,
  134, 151,
  134, 157,
  134, 158,
  134, 159,
  134, 160,
  134, 161,
  134, 164,
  134, 165,
  134, 167,
  134, 172,
  134, 174,
  134, 175,
  134, 178,
  134, 179,
  134, 181,
  134, 184,
  134, 187,
  134, 188,
  134, 190,
  134, 192,
  134, 194,
  134, 195,
  134, 196,
  134, 197,
  134, 199,
  134, 201,
  134, 204,
  134, 205,
  134, 208,
  134, 209,
  134, 211,
  134, 213,
  134, 214,
  134, 216,
  134, 217,
  134, 218,
  134, 219,
  134, 221,
  134, 222,
  134, 224,
  134, 225,
  134, 226,
  134, 227,
  134, 229,
  134, 231,
  134, 233,
  134, 235,
  134, 236,
  134, 238,
  134, 239,
  134, 240,
  134, 243,
  134, 244,
  134, 246,
  134, 247,
  134, 249,
  134, 251,
  134, 252,
  134, 256,
  134, 259,
  134, 260,
  134, 262,
  134, 263,
  134, 267,
  134, 271,
  134, 276,
  134, 280,
  134, 281,
  134, 282,
  134, 284,
  134, 285,
  134, 286,
  134, 290,
  134, 291,
  134, 293,
  134, 294,
  134, 296,
  134, 297,
  134, 300,
  134, 303,
  134, 304,
  134, 307,
  134, 309,
  134, 310,
  134, 315,
  134, 316,
  134, 317,
  134, 318,
  134, 319,
  134, 320,
  134, 324,
  134, 325,
  134, 326,
  134, 327,
  134, 336,
  134, 337,
  134, 339,
  134, 342,
  134, 343,
  134, 345,
  134, 346,
  134, 347,
  134, 348,
  134, 349,
  134, 352,
  134, 353,
  134, 356,
  134, 359,
  134, 361,
  134, 362,
  134, 363,
  134, 366,
  134, 368,
  134, 369,
  134, 370,
  134, 371,
  134, 373,
  134, 379,
  134, 380,
  134, 381,
  134, 383,
  134, 385,
  134, 389,
  134, 390,
  134, 392,
  134, 394,
  134, 398,
  134, 400,
  134, 404,
  134, 406,
  134, 407,
  134, 409,
  134, 412,
  134, 413,
  134, 415,
  134, 424,
  134, 425,
  134, 426,
  134, 431,
  134, 432,
  134, 433,
  134, 436,
  134, 439,
  134, 443,
  134, 446,
  134, 447,
  134, 450,
  134, 451,
  134, 453,
  134, 454,
  134, 456,
  134, 460,
  134, 461,
  134, 465,
  134, 466,
  134, 468,
  134, 472,
  134, 478,
  134, 479,
  134, 481,
  134, 484,
  134, 488,
  134, 489,
  134, 492,
  134, 493,
  134, 494,
  134, 496,
  134, 497,
  134, 498,
  134, 499,
  135, 136,
  135, 138,
  135, 146,
  135, 147,
  135, 149,
  135, 150,
  135, 152,
  135, 153,
  135, 159,
  135, 165,
  135, 166,
  135, 170,
  135, 172,
  135, 173,
  135, 174,
  135, 176,
  135, 181,
  135, 186,
  135, 189,
  135, 193,
  135, 194,
  135, 197,
  135, 198,
  135, 201,
  135, 203,
  135, 208,
  135, 214,
  135, 216,
  135, 220,
  135, 221,
  135, 223,
  135, 226,
  135, 227,
  135, 228,
  135, 231,
  135, 233,
  135, 234,
  135, 236,
  135, 237,
  135, 238,
  135, 242,
  135, 243,
  135, 245,
  135, 248,
  135, 254,
  135, 256,
  135, 257,
  135, 260,
  135, 261,
  135, 262,
  135, 265,
  135, 266,
  135, 267,
  135, 268,
  135, 269,
  135, 270,
  135, 271,
  135, 274,
  135, 277,
  135, 279,
  135, 280,
  135, 281,
  135, 283,
  135, 284,
  135, 285,
  135, 286,
  135, 288,
  135, 289,
  135, 290,
  135, 291,
  135, 293,
  135, 294,
  135, 295,
  135, 296,
  135, 297,
  135, 298,
  135, 299,
  135, 300,
  135, 302,
  135, 304,
  135, 305,
  135, 306,
  135, 307,
  135, 309,
  135, 311,
  135, 312,
  135, 313,
  135, 314,
  135, 316,
  135, 321,
  135, 322,
  135, 324,
  135, 325,
  135, 328,
  135, 335,
  135, 336,
  135, 337,
  135, 338,
  135, 340,
  135, 345,
  135, 346,
  135, 347,
  135, 348,
  135, 350,
  135, 351,
  135, 352,
  135, 353,
  135, 355,
  135, 356,
  135, 360,
  135, 362,
  135, 366,
  135, 367,
  135, 369,
  135, 370,
  135, 373,
  135, 374,
  135, 375,
  135, 376,
  135, 377,
  135, 378,
  135, 379,
  135, 384,
  135, 386,
  135, 390,
  135, 392,
  135, 394,
  135, 396,
  135, 399,
  135, 400,
  135, 401,
  135, 402,
  135, 403,
  135, 406,
  135, 407,
  135, 408,
  135, 409,
  135, 411,
  135, 413,
  135, 414,
  135, 416,
  135, 417,
  135, 419,
  135, 421,
  135, 424,
  135, 427,
  135, 428,
  135, 429,
  135, 430,
  135, 436,
  135, 438,
  135, 440,
  135, 442,
  135, 444,
  135, 445,
  135, 446,
  135, 447,
  135, 454,
  135, 456,
  135, 460,
  135, 462,
  135, 464,
  135, 466,
  135, 467,
  135, 469,
  135, 470,
  135, 471,
  135, 478,
  135, 480,
  135, 481,
  135, 482,
  135, 484,
  135, 488,
  135, 491,
  135, 493,
  135, 495,
  135, 496,
  135, 499,
  136, 139,
  136, 142,
  136, 143,
  136, 145,
  136, 147,
  136, 149,
  136, 150,
  136, 152,
  136, 154,
  136, 155,
  136, 156,
  136, 159,
  136, 162,
  136, 163,
  136, 166,
  136, 171,
  136, 172,
  136, 173,
  136, 175,
  136, 177,
  136, 178,
  136, 180,
  136, 181,
  136, 182,
  136, 183,
  136, 184,
  136, 186,
  136, 187,
  136, 191,
  136, 192,
  136, 194,
  136, 196,
  136, 197,
  136, 198,
  136, 199,
  136, 201,
  136, 202,
  136, 203,
  136, 204,
  136, 205,
  136, 206,
  136, 207,
  136, 208,
  136, 209,
  136, 211,
  136, 212,
  136, 213,
  136, 216,
  136, 218,
  136, 220,
  136, 222,
  136, 226,
  136, 227,
  136, 228,
  136, 230,
  136, 234,
  136, 237,
  136, 238,
  136, 243,
  136, 244,
  136, 247,
  136, 248,
  136, 249,
  136, 256,
  136, 258,
  136, 260,
  136, 262,
  136, 263,
  136, 264,
  136, 265,
  136, 266,
  136, 267,
  136, 269,
  136, 270,
  136, 271,
  136, 272,
  136, 274,
  136, 275,
  136, 279,
  136, 282,
  136, 285,
  136, 287,
  136, 288,
  136, 289,
  136, 293,
  136, 296,
  136, 298,
  136, 300,
  136, 305,
  136, 307,
  136, 310,
  136, 311,
  136, 313,
  136, 317,
  136, 318,
  136, 319,
  136, 321,
  136, 334,
  136, 335,
  136, 337,
  136, 338,
  136, 339,
  136, 340,
  136, 341,
  136, 342,
  136, 343,
  136, 344,
  136, 346,
  136, 347,
  136, 348,
  136, 349,
  136, 350,
  136, 351,
  136, 353,
  136, 354,
  136, 360,
  136, 362,
  136, 363,
  136, 364,
  136, 365,
  136, 366,
  136, 368,
  136, 371,
  136, 374,
  136, 376,
  136, 379,
  136, 380,
  136, 385,
  136, 386,
  136, 387,
  136, 389,
  136, 391,
  136, 394,
  136, 395,
  136, 396,
  136, 397,
  136, 398,
  136, 400,
  136, 402,
  136, 403,
  136, 404,
  136, 405,
  136, 407,
  136, 408,
  136, 414,
  136, 415,
  136, 417,
  136, 418,
  136, 422,
  136, 423,
  136, 425,
  136, 427,
  136, 428,
  136, 429,
  136, 433,
  136, 435,
  136, 436,
  136, 437,
  136, 438,
  136, 441,
  136, 442,
  136, 444,
  136, 449,
  136, 450,
  136, 451,
  136, 452,
  136, 454,
  136, 457,
  136, 459,
  136, 463,
  136, 465,
  136, 467,
  136, 468,
  136, 469,
  136, 472,
  136, 476,
  136, 478,
  136, 479,
  136, 483,
  136, 487,
  136, 488,
  136, 492,
  136, 495,
  136, 497,
  136, 499,
  136, 500,
  137, 138,
  137, 140,
  137, 141,
  137, 142,
  137, 145,
  137, 146,
  137, 150,
  137, 153,
  137, 155,
  137, 157,
  137, 158,
  137, 160,
  137, 161,
  137, 162,
  137, 163,
  137, 165,
  137, 166,
  137, 167,
  137, 168,
  137, 170,
  137, 172,
  137, 173,
  137, 174,
  137, 175,
  137, 180,
  137, 181,
  137, 182,
  137, 186,
  137, 187,
  137, 188,
  137, 189,
  137, 191,
  137, 194,
  137, 196,
  137, 198,
  137, 200,
  137, 203,
  137, 204,
  137, 206,
  137, 207,
  137, 212,
  137, 213,
  137, 214,
  137, 215,
  137, 216,
  137, 219,
  137, 221,
  137, 223,
  137, 224,
  137, 226,
  137, 229,
  137, 230,
  137, 231,
  137, 232,
  137, 234,
  137, 237,
  137, 239,
  137, 240,
  137, 246,
  137, 248,
  137, 252,
  137, 253,
  137, 254,
  137, 256,
  137, 257,
  137, 260,
  137, 261,
  137, 263,
  137, 266,
  137, 267,
  137, 271,
  137, 272,
  137, 273,
  137, 275,
  137, 277,
  137, 278,
  137, 280,
  137, 281,
  137, 282,
  137, 283,
  137, 284,
  137, 286,
  137, 287,
  137, 288,
  137, 289,
  137, 290,
  137, 291,
  137, 292,
  137, 295,
  137, 296,
  137, 297,
  137, 298,
  137, 299,
  137, 300,
  137, 304,
  137, 305,
  137, 306,
  137, 309,
  137, 311,
  137, 314,
  137, 315,
  137, 317,
  137, 319,
  137, 322,
  137, 323,
  137, 324,
  137, 325,
  137, 326,
  137, 327,
  137, 329,
  137, 330,
  137, 332,
  137, 334,
  137, 335,
  137, 336,
  137, 338,
  137, 339,
  137, 343,
  137, 345,
  137, 348,
  137, 352,
  137, 353,
  137, 354,
  137, 355,
  137, 357,
  137, 361,
  137, 362,
  137, 363,
  137, 364,
  137, 365,
  137, 367,
  137, 369,
  137, 370,
  137, 372,
  137, 373,
  137, 374,
  137, 375,
  137, 378,
  137, 379,
  137, 380,
  137, 384,
  137, 385,
  137, 387,
  137, 388,
  137, 389,
  137, 390,
  137, 394,
  137, 395,
  137, 396,
  137, 397,
  137, 399,
  137, 400,
  137, 401,
  137, 403,
  137, 404,
  137, 405,
  137, 407,
  137, 408,
  137, 412,
  137, 413,
  137, 414,
  137, 416,
  137, 418,
  137, 419,
  137, 422,
  137, 423,
  137, 424,
  137, 425,
  137, 428,
  137, 429,
  137, 430,
  137, 433,
  137, 435,
  137, 440,
  137, 442,
  137, 445,
  137, 446,
  137, 448,
  137, 453,
  137, 456,
  137, 457,
  137, 460,
  137, 461,
  137, 462,
  137, 463,
  137, 466,
  137, 467,
  137, 471,
  137, 473,
  137, 475,
  137, 477,
  137, 478,
  137, 481,
  137, 482,
  137, 485,
  137, 487,
  137, 488,
  137, 495,
  137, 497,
  137, 499,
  137, 500,
  138, 139,
  138, 142,
  138, 143,
  138, 144,
  138, 147,
  138, 152,
  138, 153,
  138, 155,
  138, 156,
  138, 157,
  138, 158,
  138, 159,
  138, 161,
  138, 162,
  138, 163,
  138, 165,
  138, 166,
  138, 167,
  138, 169,
  138, 170,
  138, 174,
  138, 177,
  138, 181,
  138, 185,
  138, 191,
  138, 193,
  138, 198,
  138, 199,
  138, 200,
  138, 202,
  138, 204,
  138, 205,
  138, 206,
  138, 207,
  138, 209,
  138, 211,
  138, 214,
  138, 215,
  138, 217,
  138, 220,
  138, 223,
  138, 225,
  138, 230,
  138, 231,
  138, 232,
  138, 234,
  138, 235,
  138, 239,
  138, 244,
  138, 249,
  138, 251,
  138, 253,
  138, 256,
  138, 257,
  138, 259,
  138, 261,
  138, 262,
  138, 263,
  138, 264,
  138, 265,
  138, 266,
  138, 270,
  138, 271,
  138, 272,
  138, 273,
  138, 274,
  138, 277,
  138, 278,
  138, 279,
  138, 282,
  138, 283,
  138, 284,
  138, 287,
  138, 290,
  138, 292,
  138, 294,
  138, 296,
  138, 298,
  138, 300,
  138, 305,
  138, 306,
  138, 307,
  138, 308,
  138, 310,
  138, 311,
  138, 313,
  138, 314,
  138, 315,
  138, 319,
  138, 321,
  138, 323,
  138, 326,
  138, 327,
  138, 329,
  138, 330,
  138, 334,
  138, 335,
  138, 338,
  138, 339,
  138, 340,
  138, 342,
  138, 344,
  138, 345,
  138, 348,
  138, 349,
  138, 350,
  138, 351,
  138, 352,
  138, 356,
  138, 357,
  138, 363,
  138, 364,
  138, 365,
  138, 367,
  138, 368,
  138, 369,
  138, 370,
  138, 371,
  138, 372,
  138, 378,
  138, 379,
  138, 383,
  138, 384,
  138, 387,
  138, 390,
  138, 393,
  138, 394,
  138, 396,
  138, 400,
  138, 403,
  138, 407,
  138, 408,
  138, 410,
  138, 413,
  138, 417,
  138, 418,
  138, 421,
  138, 422,
  138, 423,
  138, 425,
  138, 426,
  138, 428,
  138, 429,
  138, 431,
  138, 432,
  138, 434,
  138, 435,
  138, 438,
  138, 439,
  138, 440,
  138, 441,
  138, 442,
  138, 446,
  138, 447,
  138, 449,
  138, 450,
  138, 451,
  138, 460,
  138, 461,
  138, 463,
  138, 468,
  138, 470,
  138, 471,
  138, 472,
  138, 474,
  138, 475,
  138, 476,
  138, 477,
  138, 484,
  138, 486,
  138, 487,
  138, 488,
  138, 489,
  138, 490,
  138, 498,
  138, 499,
  139, 141,
  139, 145,
  139, 147,
  139, 150,
  139, 153,
  139, 154,
  139, 156,
  139, 157,
  139, 164,
  139, 166,
  139, 168,
  139, 170,
  139, 171,
  139, 174,
  139, 175,
  139, 176,
  139, 178,
  139, 179,
  139, 180,
  139, 181,
  139, 183,
  139, 184,
  139, 185,
  139, 186,
  139, 187,
  139, 188,
  139, 189,
  139, 190,
  139, 192,
  139, 193,
  139, 196,
  139, 197,
  139, 199,
  139, 200,
  139, 201,
  139, 203,
  139, 204,
  139, 206,
  139, 207,
  139, 208,
  139, 211,
  139, 214,
  139, 215,
  139, 217,
  139, 218,
  139, 219,
  139, 220,
  139, 222,
  139, 223,
  139, 226,
  139, 229,
  139, 231,
  139, 232,
  139, 233,
  139, 238,
  139, 239,
  139, 241,
  139, 243,
  139, 245,
  139, 248,
  139, 251,
  139, 252,
  139, 253,
  139, 256,
  139, 260,
  139, 261,
  139, 262,
  139, 264,
  139, 266,
  139, 268,
  139, 270,
  139, 272,
  139, 273,
  139, 276,
  139, 277,
  139, 278,
  139, 279,
  139, 280,
  139, 282,
  139, 284,
  139, 286,
  139, 289,
  139, 292,
  139, 293,
  139, 294,
  139, 295,
  139, 298,
  139, 299,
  139, 302,
  139, 303,
  139, 305,
  139, 307,
  139, 308,
  139, 310,
  139, 311,
  139, 313,
  139, 315,
  139, 316,
  139, 318,
  139, 325,
  139, 329,
  139, 331,
  139, 333,
  139, 334,
  139, 336,
  139, 337,
  139, 341,
  139, 343,
  139, 345,
  139, 351,
  139, 352,
  139, 353,
  139, 354,
  139, 355,
  139, 356,
  139, 358,
  139, 360,
  139, 361,
  139, 362,
  139, 363,
  139, 364,
  139, 367,
  139, 370,
  139, 375,
  139, 378,
  139, 379,
  139, 380,
  139, 381,
  139, 382,
  139, 383,
  139, 385,
  139, 388,
  139, 389,
  139, 392,
  139, 393,
  139, 394,
  139, 396,
  139, 397,
  139, 399,
  139, 400,
  139, 404,
  139, 407,
  139, 408,
  139, 409,
  139, 411,
  139, 414,
  139, 415,
  139, 417,
  139, 418,
  139, 421,
  139, 425,
  139, 426,
  139, 427,
  139, 432,
  139, 435,
  139, 437,
  139, 440,
  139, 441,
  139, 442,
  139, 445,
  139, 446,
  139, 449,
  139, 450,
  139, 453,
  139, 457,
  139, 458,
  139, 460,
  139, 461,
  139, 467,
  139, 469,
  139, 470,
  139, 472,
  139, 473,
  139, 477,
  139, 480,
  139, 481,
  139, 484,
  139, 486,
  139, 491,
  139, 492,
  139, 493,
  139, 494,
  139, 495,
  139, 499,
  140, 141,
  140, 142,
  140, 145,
  140, 150,
  140, 152,
  140, 154,
  140, 156,
  140, 158,
  140, 159,
  140, 160,
  140, 161,
  140, 163,
  140, 165,
  140, 166,
  140, 169,
  140, 170,
  140, 172,
  140, 173,
  140, 174,
  140, 178,
  140, 179,
  140, 182,
  140, 185,
  140, 187,
  140, 188,
  140, 190,
  140, 193,
  140, 194,
  140, 195,
  140, 196,
  140, 197,
  140, 198,
  140, 199,
  140, 200,
  140, 202,
  140, 203,
  140, 204,
  140, 208,
  140, 210,
  140, 211,
  140, 212,
  140, 213,
  140, 215,
  140, 217,
  140, 218,
  140, 219,
  140, 220,
  140, 224,
  140, 227,
  140, 228,
  140, 229,
  140, 230,
  140, 231,
  140, 232,
  140, 233,
  140, 234,
  140, 235,
  140, 236,
  140, 239,
  140, 241,
  140, 244,
  140, 246,
  140, 247,
  140, 248,
  140, 250,
  140, 254,
  140, 255,
  140, 256,
  140, 257,
  140, 258,
  140, 259,
  140, 260,
  140, 262,
  140, 264,
  140, 266,
  140, 267,
  140, 272,
  140, 273,
  140, 275,
  140, 279,
  140, 281,
  140, 285,
  140, 287,
  140, 289,
  140, 290,
  140, 291,
  140, 292,
  140, 293,
  140, 295,
  140, 303,
  140, 306,
  140, 307,
  140, 308,
  140, 309,
  140, 311,
  140, 313,
  140, 315,
  140, 317,
  140, 318,
  140, 320,
  140, 321,
  140, 323,
  140, 324,
  140, 326,
  140, 327,
  140, 329,
  140, 330,
  140, 331,
  140, 336,
  140, 337,
  140, 339,
  140, 340,
  140, 344,
  140, 345,
  140, 347,
  140, 351,
  140, 353,
  140, 354,
  140, 356,
  140, 358,
  140, 359,
  140, 360,
  140, 361,
  140, 363,
  140, 364,
  140, 365,
  140, 368,
  140, 369,
  140, 370,
  140, 371,
  140, 372,
  140, 374,
  140, 382,
  140, 383,
  140, 388,
  140, 389,
  140, 393,
  140, 394,
  140, 399,
  140, 400,
  140, 401,
  140, 402,
  140, 403,
  140, 404,
  140, 407,
  140, 408,
  140, 409,
  140, 410,
  140, 411,
  140, 415,
  140, 416,
  140, 417,
  140, 418,
  140, 419,
  140, 422,
  140, 423,
  140, 424,
  140, 425,
  140, 426,
  140, 429,
  140, 430,
  140, 433,
  140, 434,
  140, 436,
  140, 437,
  140, 438,
  140, 439,
  140, 440,
  140, 442,
  140, 446,
  140, 449,
  140, 450,
  140, 451,
  140, 454,
  140, 456,
  140, 458,
  140, 459,
  140, 462,
  140, 463,
  140, 464,
  140, 465,
  140, 467,
  140, 469,
  140, 471,
  140, 472,
  140, 473,
  140, 474,
  140, 475,
  140, 476,
  140, 478,
  140, 480,
  140, 486,
  140, 487,
  140, 488,
  140, 489,
  140, 493,
  140, 495,
  140, 496,
  140, 497,
  140, 499,
  141, 144,
  141, 145,
  141, 146,
  141, 147,
  141, 150,
  141, 153,
  141, 154,
  141, 155,
  141, 156,
  141, 157,
  141, 158,
  141, 161,
  141, 163,
  141, 164,
  141, 165,
  141, 169,
  141, 170,
  141, 174,
  141, 175,
  141, 176,
  141, 177,
  141, 178,
  141, 179,
  141, 180,
  141, 181,
  141, 185,
  141, 186,
  141, 188,
  141, 191,
  141, 192,
  141, 194,
  141, 197,
  141, 208,
  141, 210,
  141, 211,
  141, 213,
  141, 214,
  141, 216,
  141, 218,
  141, 221,
  141, 222,
  141, 223,
  141, 226,
  141, 227,
  141, 229,
  141, 231,
  141, 232,
  141, 234,
  141, 241,
  141, 242,
  141, 243,
  141, 245,
  141, 248,
  141, 253,
  141, 256,
  141, 260,
  141, 261,
  141, 262,
  141, 263,
  141, 266,
  141, 267,
  141, 268,
  141, 269,
  141, 270,
  141, 271,
  141, 272,
  141, 273,
  141, 274,
  141, 275,
  141, 277,
  141, 279,
  141, 284,
  141, 286,
  141, 287,
  141, 288,
  141, 289,
  141, 290,
  141, 291,
  141, 292,
  141, 294,
  141, 298,
  141, 300,
  141, 301,
  141, 302,
  141, 303,
  141, 305,
  141, 310,
  141, 312,
  141, 313,
  141, 315,
  141, 316,
  141, 317,
  141, 318,
  141, 322,
  141, 323,
  141, 324,
  141, 325,
  141, 326,
  141, 329,
  141, 330,
  141, 331,
  141, 333,
  141, 337,
  141, 338,
  141, 340,
  141, 344,
  141, 347,
  141, 349,
  141, 352,
  141, 353,
  141, 355,
  141, 356,
  141, 369,
  141, 370,
  141, 371,
  141, 375,
  141, 376,
  141, 379,
  141, 380,
  141, 381,
  141, 382,
  141, 385,
  141, 387,
  141, 390,
  141, 395,
  141, 397,
  141, 398,
  141, 400,
  141, 402,
  141, 404,
  141, 414,
  141, 416,
  141, 418,
  141, 419,
  141, 421,
  141, 422,
  141, 424,
  141, 425,
  141, 428,
  141, 431,
  141, 433,
  141, 434,
  141, 435,
  141, 436,
  141, 440,
  141, 442,
  141, 444,
  141, 448,
  141, 450,
  141, 454,
  141, 459,
  141, 461,
  141, 463,
  141, 465,
  141, 468,
  141, 470,
  141, 471,
  141, 474,
  141, 475,
  141, 476,
  141, 479,
  141, 480,
  141, 481,
  141, 482,
  141, 485,
  141, 490,
  141, 494,
  142, 146,
  142, 148,
  142, 149,
  142, 150,
  142, 151,
  142, 152,
  142, 153,
  142, 157,
  142, 158,
  142, 159,
  142, 163,
  142, 168,
  142, 172,
  142, 174,
  142, 176,
  142, 177,
  142, 178,
  142, 179,
  142, 183,
  142, 185,
  142, 186,
  142, 187,
  142, 188,
  142, 189,
  142, 193,
  142, 194,
  142, 198,
  142, 202,
  142, 203,
  142, 204,
  142, 205,
  142, 206,
  142, 207,
  142, 209,
  142, 211,
  142, 212,
  142, 213,
  142, 214,
  142, 219,
  142, 220,
  142, 225,
  142, 226,
  142, 227,
  142, 228,
  142, 232,
  142, 233,
  142, 235,
  142, 241,
  142, 242,
  142, 244,
  142, 245,
  142, 246,
  142, 249,
  142, 253,
  142, 254,
  142, 257,
  142, 259,
  142, 264,
  142, 265,
  142, 267,
  142, 268,
  142, 271,
  142, 276,
  142, 277,
  142, 278,
  142, 280,
  142, 282,
  142, 283,
  142, 285,
  142, 293,
  142, 295,
  142, 298,
  142, 299,
  142, 300,
  142, 301,
  142, 303,
  142, 307,
  142, 308,
  142, 309,
  142, 310,
  142, 311,
  142, 312,
  142, 313,
  142, 315,
  142, 316,
  142, 320,
  142, 321,
  142, 326,
  142, 327,
  142, 328,
  142, 329,
  142, 330,
  142, 331,
  142, 333,
  142, 334,
  142, 336,
  142, 337,
  142, 338,
  142, 339,
  142, 340,
  142, 341,
  142, 345,
  142, 347,
  142, 349,
  142, 350,
  142, 353,
  142, 354,
  142, 355,
  142, 356,
  142, 363,
  142, 364,
  142, 368,
  142, 370,
  142, 371,
  142, 372,
  142, 375,
  142, 376,
  142, 377,
  142, 379,
  142, 380,
  142, 381,
  142, 384,
  142, 386,
  142, 387,
  142, 389,
  142, 390,
  142, 394,
  142, 395,
  142, 397,
  142, 399,
  142, 404,
  142, 406,
  142, 407,
  142, 409,
  142, 410,
  142, 414,
  142, 415,
  142, 420,
  142, 421,
  142, 422,
  142, 424,
  142, 425,
  142, 431,
  142, 432,
  142, 434,
  142, 436,
  142, 438,
  142, 441,
  142, 442,
  142, 444,
  142, 445,
  142, 446,
  142, 449,
  142, 451,
  142, 453,
  142, 456,
  142, 459,
  142, 460,
  142, 462,
  142, 463,
  142, 464,
  142, 465,
  142, 467,
  142, 469,
  142, 470,
  142, 471,
  142, 472,
  142, 473,
  142, 474,
  142, 476,
  142, 478,
  142, 479,
  142, 482,
  142, 486,
  142, 487,
  142, 488,
  142, 490,
  142, 492,
  142, 500,
  143, 144,
  143, 145,
  143, 149,
  143, 150,
  143, 151,
  143, 152,
  143, 156,
  143, 157,
  143, 158,
  143, 159,
  143, 162,
  143, 165,
  143, 167,
  143, 169,
  143, 170,
  143, 172,
  143, 174,
  143, 175,
  143, 176,
  143, 177,
  143, 178,
  143, 181,
  143, 183,
  143, 187,
  143, 188,
  143, 193,
  143, 200,
  143, 203,
  143, 205,
  143, 207,
  143, 208,
  143, 212,
  143, 214,
  143, 215,
  143, 217,
  143, 218,
  143, 219,
  143, 220,
  143, 221,
  143, 224,
  143, 228,
  143, 229,
  143, 234,
  143, 235,
  143, 236,
  143, 240,
  143, 246,
  143, 248,
  143, 249,
  143, 250,
  143, 251,
  143, 252,
  143, 257,
  143, 263,
  143, 266,
  143, 269,
  143, 270,
  143, 272,
  143, 273,
  143, 278,
  143, 279,
  143, 280,
  143, 281,
  143, 283,
  143, 285,
  143, 287,
  143, 289,
  143, 290,
  143, 291,
  143, 293,
  143, 301,
  143, 303,
  143, 304,
  143, 305,
  143, 307,
  143, 309,
  143, 311,
  143, 312,
  143, 316,
  143, 317,
  143, 318,
  143, 325,
  143, 327,
  143, 328,
  143, 331,
  143, 333,
  143, 336,
  143, 337,
  143, 338,
  143, 340,
  143, 341,
  143, 342,
  143, 346,
  143, 348,
  143, 349,
  143, 352,
  143, 353,
  143, 355,
  143, 356,
  143, 362,
  143, 364,
  143, 365,
  143, 366,
  143, 367,
  143, 371,
  143, 378,
  143, 380,
  143, 381,
  143, 384,
  143, 385,
  143, 386,
  143, 387,
  143, 391,
  143, 392,
  143, 396,
  143, 397,
  143, 402,
  143, 404,
  143, 409,
  143, 410,
  143, 414,
  143, 415,
  143, 416,
  143, 418,
  143, 419,
  143, 421,
  143, 423,
  143, 428,
  143, 429,
  143, 430,
  143, 432,
  143, 435,
  143, 436,
  143, 438,
  143, 440,
  143, 441,
  143, 442,
  143, 444,
  143, 445,
  143, 447,
  143, 448,
  143, 450,
  143, 454,
  143, 455,
  143, 457,
  143, 458,
  143, 460,
  143, 466,
  143, 468,
  143, 469,
  143, 471,
  143, 472,
  143, 474,
  143, 475,
  143, 477,
  143, 478,
  143, 480,
  143, 483,
  143, 484,
  143, 485,
  143, 487,
  143, 490,
  143, 491,
  143, 494,
  143, 495,
  143, 496,
  143, 499,
  144, 147,
  144, 148,
  144, 149,
  144, 151,
  144, 153,
  144, 157,
  144, 159,
  144, 162,
  144, 164,
  144, 165,
  144, 166,
  144, 172,
  144, 174,
  144, 176,
  144, 180,
  144, 181,
  144, 182,
  144, 186,
  144, 187,
  144, 190,
  144, 191,
  144, 193,
  144, 194,
  144, 196,
  144, 199,
  144, 203,
  144, 205,
  144, 206,
  144, 207,
  144, 214,
  144, 216,
  144, 217,
  144, 218,
  144, 219,
  144, 221,
  144, 222,
  144, 223,
  144, 225,
  144, 227,
  144, 228,
  144, 230,
  144, 239,
  144, 240,
  144, 242,
  144, 243,
  144, 245,
  144, 248,
  144, 250,
  144, 255,
  144, 256,
  144, 258,
  144, 259,
  144, 261,
  144, 262,
  144, 263,
  144, 264,
  144, 267,
  144, 271,
  144, 275,
  144, 278,
  144, 279,
  144, 280,
  144, 281,
  144, 282,
  144, 287,
  144, 288,
  144, 292,
  144, 293,
  144, 294,
  144, 296,
  144, 298,
  144, 300,
  144, 301,
  144, 306,
  144, 307,
  144, 308,
  144, 311,
  144, 315,
  144, 317,
  144, 318,
  144, 319,
  144, 323,
  144, 324,
  144, 326,
  144, 329,
  144, 330,
  144, 331,
  144, 333,
  144, 335,
  144, 336,
  144, 337,
  144, 339,
  144, 341,
  144, 342,
  144, 344,
  144, 349,
  144, 352,
  144, 354,
  144, 355,
  144, 356,
  144, 362,
  144, 363,
  144, 364,
  144, 366,
  144, 369,
  144, 371,
  144, 373,
  144, 375,
  144, 377,
  144, 381,
  144, 385,
  144, 386,
  144, 387,
  144, 390,
  144, 391,
  144, 393,
  144, 394,
  144, 403,
  144, 405,
  144, 412,
  144, 415,
  144, 417,
  144, 419,
  144, 421,
  144, 422,
  144, 423,
  144, 424,
  144, 432,
  144, 439,
  144, 445,
  144, 449,
  144, 450,
  144, 453,
  144, 454,
  144, 456,
  144, 459,
  144, 460,
  144, 461,
  144, 462,
  144, 463,
  144, 464,
  144, 465,
  144, 466,
  144, 468,
  144, 470,
  144, 471,
  144, 472,
  144, 473,
  144, 474,
  144, 476,
  144, 478,
  144, 479,
  144, 481,
  144, 485,
  144, 486,
  144, 487,
  144, 488,
  144, 490,
  144, 492,
  144, 498,
  144, 500,
  145, 147,
  145, 148,
  145, 157,
  145, 158,
  145, 161,
  145, 163,
  145, 165,
  145, 167,
  145, 169,
  145, 172,
  145, 174,
  145, 175,
  145, 176,
  145, 177,
  145, 180,
  145, 183,
  145, 184,
  145, 185,
  145, 187,
  145, 190,
  145, 191,
  145, 193,
  145, 195,
  145, 202,
  145, 204,
  145, 206,
  145, 207,
  145, 210,
  145, 212,
  145, 213,
  145, 214,
  145, 218,
  145, 221,
  145, 223,
  145, 224,
  145, 226,
  145, 227,
  145, 228,
  145, 231,
  145, 233,
  145, 234,
  145, 236,
  145, 238,
  145, 239,
  145, 242,
  145, 243,
  145, 244,
  145, 246,
  145, 251,
  145, 253,
  145, 257,
  145, 258,
  145, 259,
  145, 260,
  145, 261,
  145, 264,
  145, 271,
  145, 272,
  145, 276,
  145, 278,
  145, 279,
  145, 281,
  145, 282,
  145, 287,
  145, 288,
  145, 289,
  145, 290,
  145, 292,
  145, 293,
  145, 294,
  145, 296,
  145, 298,
  145, 304,
  145, 307,
  145, 308,
  145, 309,
  145, 311,
  145, 313,
  145, 315,
  145, 318,
  145, 321,
  145, 323,
  145, 324,
  145, 325,
  145, 327,
  145, 328,
  145, 331,
  145, 334,
  145, 335,
  145, 339,
  145, 344,
  145, 345,
  145, 347,
  145, 348,
  145, 349,
  145, 354,
  145, 360,
  145, 361,
  145, 362,
  145, 365,
  145, 366,
  145, 367,
  145, 368,
  145, 369,
  145, 370,
  145, 375,
  145, 377,
  145, 378,
  145, 380,
  145, 381,
  145, 382,
  145, 385,
  145, 386,
  145, 389,
  145, 391,
  145, 393,
  145, 394,
  145, 397,
  145, 398,
  145, 401,
  145, 404,
  145, 405,
  145, 407,
  145, 408,
  145, 412,
  145, 413,
  145, 414,
  145, 416,
  145, 418,
  145, 419,
  145, 421,
  145, 422,
  145, 423,
  145, 427,
  145, 430,
  145, 431,
  145, 433,
  145, 437,
  145, 439,
  145, 440,
  145, 441,
  145, 442,
  145, 445,
  145, 446,
  145, 448,
  145, 449,
  145, 450,
  145, 451,
  145, 452,
  145, 455,
  145, 456,
  145, 457,
  145, 458,
  145, 460,
  145, 461,
  145, 463,
  145, 465,
  145, 471,
  145, 474,
  145, 480,
  145, 481,
  145, 482,
  145, 483,
  145, 484,
  145, 486,
  145, 488,
  145, 490,
  145, 491,
  145, 493,
  145, 498,
  145, 499,
  145, 500,
  146, 147,
  146, 148,
  146, 150,
  146, 152,
  146, 153,
  146, 157,
  146, 158,
  146, 159,
  146, 162,
  146, 163,
  146, 164,
  146, 166,
  146, 167,
  146, 168,
  146, 169,
  146, 171,
  146, 172,
  146, 174,
  146, 175,
  146, 176,
  146, 178,
  146, 180,
  146, 181,
  146, 182,
  146, 185,
  146, 186,
  146, 190,
  146, 191,
  146, 192,
  146, 193,
  146, 194,
  146, 197,
  146, 198,
  146, 202,
  146, 204,
  146, 205,
  146, 209,
  146, 211,
  146, 212,
  146, 213,
  146, 216,
  146, 218,
  146, 219,
  146, 220,
  146, 222,
  146, 224,
  146, 226,
  146, 227,
  146, 228,
  146, 231,
  146, 232,
  146, 233,
  146, 235,
  146, 237,
  146, 238,
  146, 240,
  146, 241,
  146, 242,
  146, 244,
  146, 245,
  146, 246,
  146, 249,
  146, 250,
  146, 253,
  146, 257,
  146, 258,
  146, 260,
  146, 261,
  146, 263,
  146, 264,
  146, 265,
  146, 267,
  146, 276,
  146, 277,
  146, 278,
  146, 279,
  146, 280,
  146, 282,
  146, 285,
  146, 289,
  146, 290,
  146, 291,
  146, 293,
  146, 296,
  146, 297,
  146, 298,
  146, 302,
  146, 303,
  146, 304,
  146, 306,
  146, 307,
  146, 309,
  146, 310,
  146, 311,
  146, 315,
  146, 318,
  146, 319,
  146, 321,
  146, 322,
  146, 324,
  146, 325,
  146, 326,
  146, 328,
  146, 329,
  146, 330,
  146, 332,
  146, 333,
  146, 335,
  146, 336,
  146, 338,
  146, 341,
  146, 345,
  146, 346,
  146, 347,
  146, 348,
  146, 351,
  146, 355,
  146, 357,
  146, 358,
  146, 359,
  146, 362,
  146, 364,
  146, 365,
  146, 366,
  146, 372,
  146, 373,
  146, 375,
  146, 377,
  146, 378,
  146, 380,
  146, 381,
  146, 384,
  146, 385,
  146, 386,
  146, 389,
  146, 390,
  146, 391,
  146, 392,
  146, 393,
  146, 394,
  146, 395,
  146, 396,
  146, 397,
  146, 399,
  146, 400,
  146, 402,
  146, 403,
  146, 404,
  146, 407,
  146, 408,
  146, 409,
  146, 410,
  146, 412,
  146, 413,
  146, 416,
  146, 418,
  146, 419,
  146, 421,
  146, 423,
  146, 425,
  146, 426,
  146, 427,
  146, 429,
  146, 430,
  146, 431,
  146, 432,
  146, 440,
  146, 441,
  146, 442,
  146, 446,
  146, 447,
  146, 448,
  146, 450,
  146, 456,
  146, 457,
  146, 458,
  146, 461,
  146, 466,
  146, 469,
  146, 470,
  146, 473,
  146, 474,
  146, 477,
  146, 482,
  146, 483,
  146, 486,
  146, 488,
  146, 489,
  146, 490,
  146, 493,
  146, 494,
  146, 496,
  146, 497,
  146, 498,
  146, 499,
  146, 500,
  147, 148,
  147, 149,
  147, 151,
  147, 152,
  147, 154,
  147, 158,
  147, 159,
  147, 160,
  147, 162,
  147, 164,
  147, 165,
  147, 170,
  147, 172,
  147, 173,
  147, 174,
  147, 175,
  147, 183,
  147, 184,
  147, 189,
  147, 192,
  147, 193,
  147, 194,
  147, 195,
  147, 199,
  147, 200,
  147, 201,
  147, 203,
  147, 204,
  147, 206,
  147, 207,
  147, 209,
  147, 211,
  147, 212,
  147, 214,
  147, 216,
  147, 218,
  147, 228,
  147, 230,
  147, 231,
  147, 232,
  147, 239,
  147, 240,
  147, 241,
  147, 248,
  147, 250,
  147, 251,
  147, 253,
  147, 254,
  147, 255,
  147, 256,
  147, 257,
  147, 259,
  147, 266,
  147, 267,
  147, 270,
  147, 271,
  147, 275,
  147, 276,
  147, 281,
  147, 283,
  147, 286,
  147, 288,
  147, 289,
  147, 291,
  147, 292,
  147, 293,
  147, 297,
  147, 298,
  147, 299,
  147, 300,
  147, 302,
  147, 305,
  147, 308,
  147, 310,
  147, 311,
  147, 317,
  147, 318,
  147, 319,
  147, 322,
  147, 323,
  147, 324,
  147, 329,
  147, 331,
  147, 332,
  147, 333,
  147, 339,
  147, 340,
  147, 342,
  147, 347,
  147, 349,
  147, 350,
  147, 352,
  147, 353,
  147, 357,
  147, 358,
  147, 359,
  147, 360,
  147, 361,
  147, 363,
  147, 364,
  147, 366,
  147, 370,
  147, 371,
  147, 374,
  147, 381,
  147, 383,
  147, 391,
  147, 392,
  147, 396,
  147, 397,
  147, 398,
  147, 399,
  147, 400,
  147, 402,
  147, 403,
  147, 406,
  147, 408,
  147, 411,
  147, 412,
  147, 415,
  147, 416,
  147, 420,
  147, 421,
  147, 423,
  147, 428,
  147, 430,
  147, 431,
  147, 432,
  147, 433,
  147, 434,
  147, 436,
  147, 438,
  147, 441,
  147, 442,
  147, 444,
  147, 446,
  147, 447,
  147, 448,
  147, 450,
  147, 451,
  147, 453,
  147, 454,
  147, 456,
  147, 457,
  147, 458,
  147, 460,
  147, 462,
  147, 465,
  147, 466,
  147, 468,
  147, 469,
  147, 470,
  147, 471,
  147, 476,
  147, 480,
  147, 482,
  147, 483,
  147, 484,
  147, 485,
  147, 487,
  147, 488,
  147, 490,
  147, 492,
  147, 494,
  147, 495,
  147, 496,
  147, 497,
  147, 498,
  147, 499,
  147, 500,
  148, 150,
  148, 156,
  148, 158,
  148, 159,
  148, 160,
  148, 164,
  148, 165,
  148, 166,
  148, 171,
  148, 172,
  148, 173,
  148, 174,
  148, 176,
  148, 180,
  148, 181,
  148, 184,
  148, 185,
  148, 186,
  148, 187,
  148, 188,
  148, 190,
  148, 191,
  148, 194,
  148, 195,
  148, 196,
  148, 197,
  148, 201,
  148, 205,
  148, 207,
  148, 213,
  148, 214,
  148, 216,
  148, 219,
  148, 221,
  148, 222,
  148, 224,
  148, 228,
  148, 230,
  148, 232,
  148, 236,
  148, 238,
  148, 239,
  148, 242,
  148, 243,
  148, 244,
  148, 245,
  148, 246,
  148, 248,
  148, 249,
  148, 250,
  148, 253,
  148, 255,
  148, 256,
  148, 258,
  148, 263,
  148, 264,
  148, 267,
  148, 268,
  148, 269,
  148, 274,
  148, 278,
  148, 279,
  148, 280,
  148, 281,
  148, 284,
  148, 285,
  148, 286,
  148, 288,
  148, 289,
  148, 291,
  148, 292,
  148, 293,
  148, 296,
  148, 297,
  148, 298,
  148, 300,
  148, 301,
  148, 302,
  148, 303,
  148, 304,
  148, 305,
  148, 306,
  148, 307,
  148, 308,
  148, 309,
  148, 311,
  148, 315,
  148, 316,
  148, 319,
  148, 327,
  148, 330,
  148, 331,
  148, 333,
  148, 334,
  148, 335,
  148, 350,
  148, 351,
  148, 352,
  148, 354,
  148, 357,
  148, 359,
  148, 360,
  148, 362,
  148, 363,
  148, 366,
  148, 367,
  148, 370,
  148, 373,
  148, 374,
  148, 376,
  148, 379,
  148, 380,
  148, 381,
  148, 382,
  148, 383,
  148, 384,
  148, 386,
  148, 387,
  148, 390,
  148, 391,
  148, 398,
  148, 399,
  148, 401,
  148, 403,
  148, 406,
  148, 410,
  148, 412,
  148, 413,
  148, 418,
  148, 419,
  148, 420,
  148, 421,
  148, 422,
  148, 423,
  148, 424,
  148, 425,
  148, 426,
  148, 428,
  148, 429,
  148, 430,
  148, 431,
  148, 432,
  148, 433,
  148, 434,
  148, 436,
  148, 442,
  148, 444,
  148, 445,
  148, 448,
  148, 452,
  148, 454,
  148, 456,
  148, 457,
  148, 459,
  148, 460,
  148, 461,
  148, 468,
  148, 470,
  148, 473,
  148, 474,
  148, 477,
  148, 479,
  148, 480,
  148, 482,
  148, 483,
  148, 486,
  148, 492,
  148, 493,
  148, 494,
  148, 496,
  148, 498,
  148, 499,
  148, 500,
  149, 150,
  149, 151,
  149, 155,
  149, 158,
  149, 159,
  149, 162,
  149, 164,
  149, 166,
  149, 167,
  149, 172,
  149, 174,
  149, 175,
  149, 176,
  149, 177,
  149, 178,
  149, 180,
  149, 181,
  149, 183,
  149, 188,
  149, 190,
  149, 191,
  149, 195,
  149, 199,
  149, 200,
  149, 202,
  149, 203,
  149, 204,
  149, 208,
  149, 210,
  149, 211,
  149, 215,
  149, 217,
  149, 218,
  149, 220,
  149, 222,
  149, 223,
  149, 227,
  149, 228,
  149, 229,
  149, 230,
  149, 232,
  149, 234,
  149, 238,
  149, 241,
  149, 243,
  149, 244,
  149, 247,
  149, 251,
  149, 253,
  149, 256,
  149, 258,
  149, 260,
  149, 261,
  149, 263,
  149, 264,
  149, 269,
  149, 270,
  149, 271,
  149, 272,
  149, 273,
  149, 276,
  149, 277,
  149, 279,
  149, 280,
  149, 282,
  149, 283,
  149, 284,
  149, 286,
  149, 290,
  149, 292,
  149, 293,
  149, 295,
  149, 296,
  149, 299,
  149, 301,
  149, 304,
  149, 306,
  149, 307,
  149, 308,
  149, 311,
  149, 313,
  149, 314,
  149, 316,
  149, 318,
  149, 321,
  149, 327,
  149, 328,
  149, 329,
  149, 330,
  149, 331,
  149, 333,
  149, 334,
  149, 341,
  149, 342,
  149, 343,
  149, 344,
  149, 345,
  149, 348,
  149, 350,
  149, 358,
  149, 359,
  149, 360,
  149, 361,
  149, 362,
  149, 363,
  149, 364,
  149, 365,
  149, 366,
  149, 367,
  149, 369,
  149, 371,
  149, 374,
  149, 378,
  149, 380,
  149, 381,
  149, 383,
  149, 385,
  149, 386,
  149, 387,
  149, 389,
  149, 392,
  149, 397,
  149, 398,
  149, 399,
  149, 400,
  149, 401,
  149, 404,
  149, 405,
  149, 406,
  149, 407,
  149, 413,
  149, 415,
  149, 417,
  149, 418,
  149, 421,
  149, 422,
  149, 424,
  149, 429,
  149, 430,
  149, 431,
  149, 433,
  149, 434,
  149, 435,
  149, 438,
  149, 440,
  149, 442,
  149, 444,
  149, 448,
  149, 450,
  149, 452,
  149, 453,
  149, 455,
  149, 456,
  149, 457,
  149, 458,
  149, 459,
  149, 461,
  149, 464,
  149, 465,
  149, 466,
  149, 468,
  149, 469,
  149, 470,
  149, 471,
  149, 472,
  149, 473,
  149, 475,
  149, 478,
  149, 481,
  149, 485,
  149, 486,
  149, 487,
  149, 491,
  149, 497,
  149, 498,
  149, 499,
  149, 500,
  150, 151,
  150, 153,
  150, 154,
  150, 156,
  150, 159,
  150, 171,
  150, 172,
  150, 173,
  150, 177,
  150, 178,
  150, 179,
  150, 180,
  150, 181,
  150, 184,
  150, 186,
  150, 187,
  150, 192,
  150, 193,
  150, 194,
  150, 195,
  150, 203,
  150, 205,
  150, 208,
  150, 215,
  150, 216,
  150, 218,
  150, 219,
  150, 223,
  150, 226,
  150, 227,
  150, 228,
  150, 230,
  150, 231,
  150, 233,
  150, 234,
  150, 236,
  150, 237,
  150, 242,
  150, 243,
  150, 245,
  150, 246,
  150, 247,
  150, 248,
  150, 253,
  150, 254,
  150, 255,
  150, 256,
  150, 258,
  150, 259,
  150, 262,
  150, 263,
  150, 266,
  150, 272,
  150, 274,
  150, 276,
  150, 277,
  150, 278,
  150, 281,
  150, 284,
  150, 288,
  150, 289,
  150, 290,
  150, 296,
  150, 303,
  150, 304,
  150, 306,
  150, 307,
  150, 309,
  150, 312,
  150, 314,
  150, 317,
  150, 319,
  150, 320,
  150, 321,
  150, 324,
  150, 327,
  150, 328,
  150, 329,
  150, 330,
  150, 331,
  150, 335,
  150, 337,
  150, 338,
  150, 339,
  150, 342,
  150, 344,
  150, 345,
  150, 350,
  150, 352,
  150, 354,
  150, 357,
  150, 360,
  150, 362,
  150, 363,
  150, 367,
  150, 368,
  150, 369,
  150, 370,
  150, 372,
  150, 373,
  150, 375,
  150, 376,
  150, 377,
  150, 379,
  150, 380,
  150, 381,
  150, 385,
  150, 387,
  150, 388,
  150, 389,
  150, 390,
  150, 391,
  150, 392,
  150, 395,
  150, 396,
  150, 397,
  150, 401,
  150, 402,
  150, 405,
  150, 406,
  150, 408,
  150, 409,
  150, 410,
  150, 415,
  150, 417,
  150, 419,
  150, 420,
  150, 421,
  150, 422,
  150, 424,
  150, 428,
  150, 431,
  150, 432,
  150, 435,
  150, 436,
  150, 437,
  150, 444,
  150, 445,
  150, 446,
  150, 447,
  150, 451,
  150, 452,
  150, 455,
  150, 456,
  150, 457,
  150, 458,
  150, 460,
  150, 461,
  150, 463,
  150, 464,
  150, 466,
  150, 469,
  150, 470,
  150, 471,
  150, 475,
  150, 477,
  150, 484,
  150, 485,
  150, 487,
  150, 488,
  150, 496,
  150, 497,
  150, 498,
  150, 499,
  151, 152,
  151, 154,
  151, 157,
  151, 159,
  151, 160,
  151, 166,
  151, 167,
  151, 171,
  151, 172,
  151, 173,
  151, 174,
  151, 175,
  151, 176,
  151, 177,
  151, 178,
  151, 179,
  151, 180,
  151, 181,
  151, 182,
  151, 183,
  151, 184,
  151, 185,
  151, 186,
  151, 194,
  151, 195,
  151, 196,
  151, 197,
  151, 198,
  151, 199,
  151, 202,
  151, 204,
  151, 206,
  151, 212,
  151, 213,
  151, 216,
  151, 219,
  151, 221,
  151, 227,
  151, 228,
  151, 229,
  151, 235,
  151, 236,
  151, 237,
  151, 239,
  151, 241,
  151, 248,
  151, 249,
  151, 251,
  151, 252,
  151, 255,
  151, 256,
  151, 260,
  151, 272,
  151, 275,
  151, 277,
  151, 278,
  151, 279,
  151, 281,
  151, 283,
  151, 285,
  151, 287,
  151, 288,
  151, 290,
  151, 291,
  151, 293,
  151, 294,
  151, 295,
  151, 296,
  151, 298,
  151, 300,
  151, 304,
  151, 306,
  151, 308,
  151, 311,
  151, 313,
  151, 314,
  151, 317,
  151, 320,
  151, 322,
  151, 324,
  151, 325,
  151, 328,
  151, 329,
  151, 330,
  151, 333,
  151, 334,
  151, 338,
  151, 339,
  151, 341,
  151, 345,
  151, 347,
  151, 348,
  151, 356,
  151, 362,
  151, 363,
  151, 365,
  151, 368,
  151, 370,
  151, 371,
  151, 372,
  151, 376,
  151, 383,
  151, 384,
  151, 385,
  151, 388,
  151, 389,
  151, 392,
  151, 394,
  151, 396,
  151, 397,
  151, 400,
  151, 402,
  151, 405,
  151, 408,
  151, 409,
  151, 411,
  151, 412,
  151, 414,
  151, 416,
  151, 419,
  151, 421,
  151, 422,
  151, 423,
  151, 424,
  151, 425,
  151, 427,
  151, 428,
  151, 431,
  151, 435,
  151, 436,
  151, 438,
  151, 444,
  151, 445,
  151, 450,
  151, 452,
  151, 454,
  151, 456,
  151, 468,
  151, 469,
  151, 470,
  151, 480,
  151, 484,
  151, 486,
  151, 487,
  151, 492,
  151, 495,
  151, 496,
  151, 497,
  151, 498,
  151, 499,
  151, 500,
  152, 153,
  152, 154,
  152, 155,
  152, 156,
  152, 157,
  152, 159,
  152, 163,
  152, 165,
  152, 171,
  152, 172,
  152, 174,
  152, 175,
  152, 179,
  152, 180,
  152, 182,
  152, 184,
  152, 185,
  152, 187,
  152, 190,
  152, 191,
  152, 192,
  152, 193,
  152, 194,
  152, 195,
  152, 196,
  152, 197,
  152, 199,
  152, 201,
  152, 202,
  152, 203,
  152, 205,
  152, 207,
  152, 209,
  152, 212,
  152, 213,
  152, 214,
  152, 216,
  152, 217,
  152, 220,
  152, 221,
  152, 223,
  152, 226,
  152, 227,
  152, 228,
  152, 229,
  152, 230,
  152, 231,
  152, 233,
  152, 236,
  152, 239,
  152, 245,
  152, 246,
  152, 247,
  152, 250,
  152, 251,
  152, 252,
  152, 254,
  152, 262,
  152, 268,
  152, 269,
  152, 270,
  152, 271,
  152, 275,
  152, 278,
  152, 280,
  152, 282,
  152, 284,
  152, 289,
  152, 291,
  152, 293,
  152, 295,
  152, 296,
  152, 297,
  152, 298,
  152, 303,
  152, 305,
  152, 307,
  152, 308,
  152, 310,
  152, 314,
  152, 317,
  152, 318,
  152, 319,
  152, 323,
  152, 324,
  152, 325,
  152, 326,
  152, 327,
  152, 328,
  152, 330,
  152, 332,
  152, 335,
  152, 336,
  152, 337,
  152, 338,
  152, 340,
  152, 341,
  152, 345,
  152, 346,
  152, 349,
  152, 351,
  152, 355,
  152, 357,
  152, 359,
  152, 361,
  152, 362,
  152, 363,
  152, 364,
  152, 367,
  152, 369,
  152, 372,
  152, 373,
  152, 377,
  152, 383,
  152, 385,
  152, 386,
  152, 388,
  152, 392,
  152, 395,
  152, 396,
  152, 398,
  152, 400,
  152, 401,
  152, 403,
  152, 410,
  152, 413,
  152, 416,
  152, 418,
  152, 420,
  152, 424,
  152, 425,
  152, 426,
  152, 430,
  152, 432,
  152, 433,
  152, 435,
  152, 437,
  152, 438,
  152, 440,
  152, 441,
  152, 442,
  152, 443,
  152, 445,
  152, 447,
  152, 448,
  152, 449,
  152, 450,
  152, 451,
  152, 452,
  152, 454,
  152, 455,
  152, 458,
  152, 464,
  152, 465,
  152, 466,
  152, 468,
  152, 469,
  152, 470,
  152, 472,
  152, 473,
  152, 474,
  152, 477,
  152, 478,
  152, 481,
  152, 483,
  152, 485,
  152, 487,
  152, 488,
  152, 489,
  152, 490,
  152, 491,
  152, 492,
  152, 495,
  152, 496,
  152, 500,
  153, 157,
  153, 159,
  153, 161,
  153, 166,
  153, 167,
  153, 168,
  153, 169,
  153, 170,
  153, 171,
  153, 172,
  153, 174,
  153, 175,
  153, 177,
  153, 178,
  153, 179,
  153, 182,
  153, 186,
  153, 188,
  153, 191,
  153, 192,
  153, 194,
  153, 197,
  153, 200,
  153, 201,
  153, 202,
  153, 203,
  153, 204,
  153, 205,
  153, 206,
  153, 208,
  153, 210,
  153, 214,
  153, 216,
  153, 217,
  153, 219,
  153, 222,
  153, 230,
  153, 231,
  153, 233,
  153, 234,
  153, 235,
  153, 236,
  153, 238,
  153, 239,
  153, 244,
  153, 245,
  153, 246,
  153, 247,
  153, 248,
  153, 250,
  153, 251,
  153, 254,
  153, 256,
  153, 262,
  153, 265,
  153, 267,
  153, 268,
  153, 272,
  153, 274,
  153, 275,
  153, 276,
  153, 279,
  153, 280,
  153, 281,
  153, 283,
  153, 284,
  153, 286,
  153, 287,
  153, 288,
  153, 289,
  153, 291,
  153, 292,
  153, 294,
  153, 297,
  153, 298,
  153, 302,
  153, 303,
  153, 304,
  153, 307,
  153, 308,
  153, 313,
  153, 314,
  153, 316,
  153, 317,
  153, 318,
  153, 319,
  153, 324,
  153, 325,
  153, 326,
  153, 328,
  153, 329,
  153, 331,
  153, 332,
  153, 334,
  153, 335,
  153, 337,
  153, 341,
  153, 342,
  153, 343,
  153, 344,
  153, 346,
  153, 349,
  153, 352,
  153, 353,
  153, 354,
  153, 356,
  153, 357,
  153, 358,
  153, 360,
  153, 361,
  153, 365,
  153, 366,
  153, 367,
  153, 369,
  153, 374,
  153, 375,
  153, 379,
  153, 380,
  153, 381,
  153, 382,
  153, 383,
  153, 385,
  153, 386,
  153, 387,
  153, 389,
  153, 391,
  153, 392,
  153, 394,
  153, 395,
  153, 397,
  153, 399,
  153, 400,
  153, 404,
  153, 405,
  153, 406,
  153, 407,
  153, 410,
  153, 411,
  153, 412,
  153, 413,
  153, 416,
  153, 418,
  153, 419,
  153, 421,
  153, 423,
  153, 425,
  153, 426,
  153, 431,
  153, 432,
  153, 433,
  153, 437,
  153, 440,
  153, 442,
  153, 443,
  153, 446,
  153, 449,
  153, 453,
  153, 460,
  153, 464,
  153, 466,
  153, 467,
  153, 468,
  153, 470,
  153, 472,
  153, 477,
  153, 478,
  153, 480,
  153, 482,
  153, 485,
  153, 486,
  153, 488,
  153, 489,
  153, 490,
  153, 492,
  153, 495,
  153, 496,
  153, 498,
  154, 156,
  154, 158,
  154, 161,
  154, 162,
  154, 164,
  154, 165,
  154, 166,
  154, 170,
  154, 173,
  154, 180,
  154, 182,
  154, 183,
  154, 184,
  154, 186,
  154, 188,
  154, 190,
  154, 191,
  154, 192,
  154, 193,
  154, 195,
  154, 198,
  154, 202,
  154, 204,
  154, 207,
  154, 210,
  154, 212,
  154, 213,
  154, 216,
  154, 217,
  154, 220,
  154, 221,
  154, 222,
  154, 223,
  154, 224,
  154, 225,
  154, 228,
  154, 229,
  154, 231,
  154, 235,
  154, 236,
  154, 237,
  154, 241,
  154, 243,
  154, 244,
  154, 245,
  154, 250,
  154, 251,
  154, 253,
  154, 254,
  154, 255,
  154, 257,
  154, 259,
  154, 260,
  154, 261,
  154, 263,
  154, 266,
  154, 268,
  154, 269,
  154, 270,
  154, 271,
  154, 272,
  154, 275,
  154, 277,
  154, 278,
  154, 282,
  154, 283,
  154, 285,
  154, 288,
  154, 289,
  154, 297,
  154, 303,
  154, 305,
  154, 306,
  154, 310,
  154, 311,
  154, 312,
  154, 315,
  154, 317,
  154, 318,
  154, 321,
  154, 323,
  154, 324,
  154, 326,
  154, 329,
  154, 333,
  154, 334,
  154, 335,
  154, 337,
  154, 338,
  154, 339,
  154, 341,
  154, 344,
  154, 345,
  154, 346,
  154, 347,
  154, 349,
  154, 354,
  154, 355,
  154, 356,
  154, 359,
  154, 361,
  154, 365,
  154, 366,
  154, 367,
  154, 369,
  154, 371,
  154, 372,
  154, 373,
  154, 374,
  154, 377,
  154, 379,
  154, 380,
  154, 381,
  154, 384,
  154, 385,
  154, 386,
  154, 391,
  154, 392,
  154, 393,
  154, 396,
  154, 397,
  154, 398,
  154, 399,
  154, 401,
  154, 403,
  154, 404,
  154, 405,
  154, 406,
  154, 409,
  154, 411,
  154, 412,
  154, 414,
  154, 415,
  154, 416,
  154, 419,
  154, 420,
  154, 422,
  154, 423,
  154, 424,
  154, 427,
  154, 428,
  154, 433,
  154, 434,
  154, 435,
  154, 438,
  154, 441,
  154, 442,
  154, 443,
  154, 444,
  154, 445,
  154, 446,
  154, 447,
  154, 452,
  154, 454,
  154, 455,
  154, 456,
  154, 461,
  154, 463,
  154, 465,
  154, 466,
  154, 470,
  154, 473,
  154, 474,
  154, 476,
  154, 477,
  154, 478,
  154, 481,
  154, 484,
  154, 487,
  154, 488,
  154, 489,
  154, 490,
  154, 491,
  154, 492,
  154, 496,
  154, 497,
  154, 498,
  155, 156,
  155, 158,
  155, 159,
  155, 163,
  155, 164,
  155, 166,
  155, 167,
  155, 171,
  155, 172,
  155, 173,
  155, 175,
  155, 178,
  155, 181,
  155, 183,
  155, 185,
  155, 187,
  155, 188,
  155, 189,
  155, 190,
  155, 192,
  155, 193,
  155, 194,
  155, 195,
  155, 196,
  155, 201,
  155, 202,
  155, 204,
  155, 205,
  155, 208,
  155, 211,
  155, 213,
  155, 215,
  155, 218,
  155, 220,
  155, 221,
  155, 222,
  155, 224,
  155, 225,
  155, 227,
  155, 229,
  155, 230,
  155, 234,
  155, 235,
  155, 236,
  155, 237,
  155, 238,
  155, 239,
  155, 240,
  155, 241,
  155, 244,
  155, 246,
  155, 252,
  155, 255,
  155, 257,
  155, 260,
  155, 262,
  155, 263,
  155, 265,
  155, 266,
  155, 267,
  155, 269,
  155, 272,
  155, 273,
  155, 274,
  155, 278,
  155, 280,
  155, 284,
  155, 286,
  155, 287,
  155, 288,
  155, 289,
  155, 294,
  155, 296,
  155, 297,
  155, 299,
  155, 300,
  155, 302,
  155, 304,
  155, 305,
  155, 307,
  155, 308,
  155, 310,
  155, 311,
  155, 312,
  155, 313,
  155, 315,
  155, 316,
  155, 317,
  155, 318,
  155, 323,
  155, 324,
  155, 327,
  155, 329,
  155, 330,
  155, 336,
  155, 341,
  155, 342,
  155, 343,
  155, 345,
  155, 348,
  155, 350,
  155, 353,
  155, 355,
  155, 356,
  155, 357,
  155, 359,
  155, 362,
  155, 365,
  155, 373,
  155, 374,
  155, 375,
  155, 376,
  155, 377,
  155, 382,
  155, 383,
  155, 384,
  155, 385,
  155, 387,
  155, 388,
  155, 392,
  155, 393,
  155, 394,
  155, 395,
  155, 396,
  155, 399,
  155, 400,
  155, 401,
  155, 402,
  155, 404,
  155, 406,
  155, 408,
  155, 411,
  155, 412,
  155, 415,
  155, 416,
  155, 417,
  155, 419,
  155, 423,
  155, 424,
  155, 426,
  155, 428,
  155, 429,
  155, 431,
  155, 434,
  155, 435,
  155, 439,
  155, 444,
  155, 445,
  155, 448,
  155, 449,
  155, 450,
  155, 451,
  155, 453,
  155, 454,
  155, 456,
  155, 457,
  155, 460,
  155, 462,
  155, 463,
  155, 464,
  155, 466,
  155, 468,
  155, 469,
  155, 470,
  155, 471,
  155, 472,
  155, 473,
  155, 477,
  155, 481,
  155, 482,
  155, 483,
  155, 486,
  155, 487,
  155, 489,
  155, 490,
  155, 492,
  155, 494,
  155, 495,
  155, 496,
  155, 497,
  155, 498,
  156, 157,
  156, 158,
  156, 160,
  156, 162,
  156, 165,
  156, 166,
  156, 167,
  156, 168,
  156, 169,
  156, 170,
  156, 171,
  156, 172,
  156, 175,
  156, 179,
  156, 180,
  156, 183,
  156, 187,
  156, 189,
  156, 190,
  156, 192,
  156, 195,
  156, 196,
  156, 199,
  156, 202,
  156, 213,
  156, 215,
  156, 216,
  156, 217,
  156, 218,
  156, 219,
  156, 220,
  156, 222,
  156, 227,
  156, 228,
  156, 229,
  156, 232,
  156, 235,
  156, 236,
  156, 238,
  156, 239,
  156, 240,
  156, 242,
  156, 243,
  156, 244,
  156, 245,
  156, 249,
  156, 253,
  156, 255,
  156, 256,
  156, 257,
  156, 258,
  156, 261,
  156, 264,
  156, 265,
  156, 270,
  156, 271,
  156, 272,
  156, 274,
  156, 275,
  156, 277,
  156, 278,
  156, 279,
  156, 280,
  156, 281,
  156, 284,
  156, 285,
  156, 286,
  156, 288,
  156, 289,
  156, 290,
  156, 297,
  156, 298,
  156, 299,
  156, 300,
  156, 301,
  156, 303,
  156, 310,
  156, 311,
  156, 314,
  156, 318,
  156, 319,
  156, 321,
  156, 322,
  156, 323,
  156, 324,
  156, 325,
  156, 327,
  156, 329,
  156, 331,
  156, 333,
  156, 335,
  156, 336,
  156, 337,
  156, 338,
  156, 340,
  156, 342,
  156, 343,
  156, 347,
  156, 349,
  156, 350,
  156, 351,
  156, 353,
  156, 356,
  156, 357,
  156, 359,
  156, 361,
  156, 362,
  156, 363,
  156, 365,
  156, 367,
  156, 368,
  156, 369,
  156, 370,
  156, 375,
  156, 378,
  156, 379,
  156, 382,
  156, 384,
  156, 385,
  156, 386,
  156, 387,
  156, 388,
  156, 389,
  156, 391,
  156, 394,
  156, 396,
  156, 397,
  156, 398,
  156, 399,
  156, 402,
  156, 404,
  156, 410,
  156, 412,
  156, 417,
  156, 420,
  156, 422,
  156, 423,
  156, 424,
  156, 425,
  156, 428,
  156, 429,
  156, 431,
  156, 432,
  156, 433,
  156, 434,
  156, 435,
  156, 436,
  156, 438,
  156, 442,
  156, 443,
  156, 445,
  156, 446,
  156, 448,
  156, 449,
  156, 450,
  156, 452,
  156, 453,
  156, 456,
  156, 457,
  156, 458,
  156, 459,
  156, 461,
  156, 464,
  156, 465,
  156, 466,
  156, 468,
  156, 471,
  156, 472,
  156, 474,
  156, 479,
  156, 480,
  156, 481,
  156, 482,
  156, 488,
  156, 490,
  156, 491,
  156, 492,
  156, 493,
  156, 494,
  156, 495,
  156, 496,
  156, 498,
  156, 500,
  157, 158,
  157, 159,
  157, 161,
  157, 162,
  157, 166,
  157, 167,
  157, 168,
  157, 171,
  157, 172,
  157, 175,
  157, 176,
  157, 177,
  157, 178,
  157, 179,
  157, 181,
  157, 183,
  157, 186,
  157, 187,
  157, 188,
  157, 189,
  157, 191,
  157, 192,
  157, 196,
  157, 197,
  157, 200,
  157, 201,
  157, 206,
  157, 207,
  157, 210,
  157, 211,
  157, 214,
  157, 216,
  157, 219,
  157, 220,
  157, 221,
  157, 226,
  157, 227,
  157, 238,
  157, 240,
  157, 243,
  157, 245,
  157, 246,
  157, 247,
  157, 248,
  157, 252,
  157, 259,
  157, 262,
  157, 263,
  157, 264,
  157, 265,
  157, 268,
  157, 269,
  157, 274,
  157, 277,
  157, 279,
  157, 282,
  157, 284,
  157, 285,
  157, 288,
  157, 294,
  157, 297,
  157, 301,
  157, 303,
  157, 304,
  157, 305,
  157, 307,
  157, 308,
  157, 311,
  157, 312,
  157, 313,
  157, 314,
  157, 315,
  157, 316,
  157, 318,
  157, 320,
  157, 325,
  157, 326,
  157, 327,
  157, 329,
  157, 330,
  157, 331,
  157, 332,
  157, 335,
  157, 336,
  157, 340,
  157, 341,
  157, 342,
  157, 343,
  157, 344,
  157, 348,
  157, 349,
  157, 352,
  157, 354,
  157, 360,
  157, 364,
  157, 366,
  157, 368,
  157, 371,
  157, 372,
  157, 373,
  157, 374,
  157, 375,
  157, 376,
  157, 380,
  157, 381,
  157, 382,
  157, 383,
  157, 385,
  157, 386,
  157, 387,
  157, 389,
  157, 391,
  157, 392,
  157, 393,
  157, 394,
  157, 395,
  157, 399,
  157, 401,
  157, 403,
  157, 405,
  157, 406,
  157, 409,
  157, 410,
  157, 411,
  157, 412,
  157, 414,
  157, 416,
  157, 419,
  157, 420,
  157, 422,
  157, 423,
  157, 424,
  157, 426,
  157, 427,
  157, 428,
  157, 430,
  157, 432,
  157, 436,
  157, 440,
  157, 441,
  157, 445,
  157, 446,
  157, 449,
  157, 452,
  157, 454,
  157, 457,
  157, 460,
  157, 461,
  157, 463,
  157, 468,
  157, 471,
  157, 473,
  157, 474,
  157, 475,
  157, 476,
  157, 477,
  157, 478,
  157, 479,
  157, 481,
  157, 482,
  157, 484,
  157, 485,
  157, 486,
  157, 487,
  157, 493,
  157, 495,
  157, 497,
  157, 498,
  158, 161,
  158, 163,
  158, 164,
  158, 165,
  158, 166,
  158, 168,
  158, 171,
  158, 173,
  158, 174,
  158, 175,
  158, 177,
  158, 180,
  158, 181,
  158, 182,
  158, 185,
  158, 189,
  158, 191,
  158, 194,
  158, 200,
  158, 202,
  158, 203,
  158, 205,
  158, 209,
  158, 212,
  158, 213,
  158, 214,
  158, 216,
  158, 218,
  158, 219,
  158, 221,
  158, 223,
  158, 224,
  158, 225,
  158, 226,
  158, 228,
  158, 229,
  158, 230,
  158, 231,
  158, 233,
  158, 234,
  158, 240,
  158, 241,
  158, 242,
  158, 244,
  158, 247,
  158, 255,
  158, 256,
  158, 257,
  158, 259,
  158, 262,
  158, 264,
  158, 265,
  158, 266,
  158, 269,
  158, 271,
  158, 273,
  158, 274,
  158, 275,
  158, 276,
  158, 277,
  158, 278,
  158, 279,
  158, 283,
  158, 284,
  158, 285,
  158, 287,
  158, 288,
  158, 289,
  158, 290,
  158, 292,
  158, 294,
  158, 295,
  158, 298,
  158, 299,
  158, 304,
  158, 305,
  158, 306,
  158, 314,
  158, 315,
  158, 316,
  158, 319,
  158, 321,
  158, 323,
  158, 324,
  158, 325,
  158, 326,
  158, 327,
  158, 329,
  158, 330,
  158, 332,
  158, 333,
  158, 334,
  158, 335,
  158, 336,
  158, 340,
  158, 341,
  158, 343,
  158, 345,
  158, 346,
  158, 349,
  158, 351,
  158, 352,
  158, 353,
  158, 355,
  158, 356,
  158, 357,
  158, 358,
  158, 359,
  158, 361,
  158, 364,
  158, 365,
  158, 371,
  158, 373,
  158, 374,
  158, 375,
  158, 376,
  158, 377,
  158, 381,
  158, 383,
  158, 384,
  158, 386,
  158, 389,
  158, 390,
  158, 391,
  158, 392,
  158, 394,
  158, 399,
  158, 400,
  158, 403,
  158, 404,
  158, 405,
  158, 408,
  158, 409,
  158, 411,
  158, 413,
  158, 414,
  158, 419,
  158, 421,
  158, 422,
  158, 423,
  158, 424,
  158, 426,
  158, 427,
  158, 431,
  158, 433,
  158, 435,
  158, 438,
  158, 442,
  158, 443,
  158, 446,
  158, 447,
  158, 449,
  158, 450,
  158, 451,
  158, 452,
  158, 454,
  158, 459,
  158, 462,
  158, 465,
  158, 468,
  158, 469,
  158, 470,
  158, 471,
  158, 473,
  158, 476,
  158, 477,
  158, 483,
  158, 485,
  158, 486,
  158, 492,
  158, 493,
  158, 496,
  158, 497,
  158, 500,
  159, 160,
  159, 162,
  159, 165,
  159, 166,
  159, 167,
  159, 169,
  159, 171,
  159, 172,
  159, 173,
  159, 174,
  159, 175,
  159, 177,
  159, 178,
  159, 179,
  159, 180,
  159, 183,
  159, 186,
  159, 188,
  159, 190,
  159, 192,
  159, 194,
  159, 195,
  159, 196,
  159, 198,
  159, 199,
  159, 200,
  159, 203,
  159, 205,
  159, 207,
  159, 214,
  159, 218,
  159, 220,
  159, 221,
  159, 223,
  159, 225,
  159, 227,
  159, 232,
  159, 233,
  159, 234,
  159, 237,
  159, 240,
  159, 243,
  159, 245,
  159, 247,
  159, 249,
  159, 252,
  159, 254,
  159, 256,
  159, 257,
  159, 260,
  159, 262,
  159, 267,
  159, 268,
  159, 269,
  159, 270,
  159, 273,
  159, 274,
  159, 276,
  159, 277,
  159, 282,
  159, 284,
  159, 285,
  159, 286,
  159, 287,
  159, 288,
  159, 289,
  159, 292,
  159, 299,
  159, 300,
  159, 306,
  159, 308,
  159, 309,
  159, 310,
  159, 312,
  159, 314,
  159, 315,
  159, 316,
  159, 318,
  159, 319,
  159, 321,
  159, 323,
  159, 324,
  159, 325,
  159, 326,
  159, 327,
  159, 332,
  159, 333,
  159, 335,
  159, 336,
  159, 340,
  159, 342,
  159, 347,
  159, 348,
  159, 349,
  159, 352,
  159, 353,
  159, 357,
  159, 359,
  159, 361,
  159, 362,
  159, 363,
  159, 366,
  159, 367,
  159, 373,
  159, 375,
  159, 376,
  159, 382,
  159, 384,
  159, 386,
  159, 387,
  159, 388,
  159, 389,
  159, 392,
  159, 393,
  159, 396,
  159, 397,
  159, 398,
  159, 401,
  159, 402,
  159, 407,
  159, 408,
  159, 409,
  159, 410,
  159, 411,
  159, 412,
  159, 413,
  159, 415,
  159, 417,
  159, 419,
  159, 421,
  159, 423,
  159, 424,
  159, 425,
  159, 429,
  159, 430,
  159, 431,
  159, 435,
  159, 437,
  159, 439,
  159, 440,
  159, 442,
  159, 443,
  159, 444,
  159, 445,
  159, 446,
  159, 447,
  159, 449,
  159, 451,
  159, 452,
  159, 453,
  159, 454,
  159, 455,
  159, 459,
  159, 460,
  159, 461,
  159, 462,
  159, 465,
  159, 466,
  159, 472,
  159, 473,
  159, 474,
  159, 475,
  159, 476,
  159, 477,
  159, 479,
  159, 481,
  159, 483,
  159, 487,
  159, 488,
  159, 489,
  159, 490,
  159, 491,
  159, 494,
  159, 496,
  159, 497,
  159, 498,
  159, 500,
  160, 161,
  160, 162,
  160, 163,
  160, 169,
  160, 174,
  160, 176,
  160, 179,
  160, 180,
  160, 182,
  160, 183,
  160, 185,
  160, 186,
  160, 191,
  160, 192,
  160, 193,
  160, 195,
  160, 197,
  160, 198,
  160, 199,
  160, 201,
  160, 203,
  160, 205,
  160, 206,
  160, 211,
  160, 212,
  160, 216,
  160, 219,
  160, 220,
  160, 221,
  160, 222,
  160, 223,
  160, 224,
  160, 225,
  160, 227,
  160, 229,
  160, 230,
  160, 231,
  160, 233,
  160, 235,
  160, 236,
  160, 243,
  160, 244,
  160, 245,
  160, 247,
  160, 248,
  160, 251,
  160, 254,
  160, 255,
  160, 260,
  160, 261,
  160, 262,
  160, 263,
  160, 271,
  160, 273,
  160, 276,
  160, 277,
  160, 278,
  160, 279,
  160, 282,
  160, 283,
  160, 287,
  160, 288,
  160, 290,
  160, 292,
  160, 295,
  160, 300,
  160, 301,
  160, 304,
  160, 308,
  160, 309,
  160, 310,
  160, 311,
  160, 312,
  160, 313,
  160, 315,
  160, 316,
  160, 319,
  160, 320,
  160, 323,
  160, 324,
  160, 326,
  160, 328,
  160, 332,
  160, 333,
  160, 334,
  160, 336,
  160, 343,
  160, 344,
  160, 347,
  160, 348,
  160, 350,
  160, 351,
  160, 355,
  160, 356,
  160, 357,
  160, 359,
  160, 360,
  160, 363,
  160, 364,
  160, 366,
  160, 367,
  160, 368,
  160, 369,
  160, 370,
  160, 371,
  160, 373,
  160, 374,
  160, 376,
  160, 382,
  160, 383,
  160, 384,
  160, 385,
  160, 386,
  160, 387,
  160, 388,
  160, 390,
  160, 393,
  160, 398,
  160, 406,
  160, 407,
  160, 408,
  160, 409,
  160, 411,
  160, 413,
  160, 415,
  160, 420,
  160, 422,
  160, 423,
  160, 425,
  160, 426,
  160, 427,
  160, 429,
  160, 430,
  160, 431,
  160, 435,
  160, 436,
  160, 438,
  160, 439,
  160, 440,
  160, 441,
  160, 442,
  160, 444,
  160, 445,
  160, 446,
  160, 447,
  160, 448,
  160, 449,
  160, 450,
  160, 451,
  160, 454,
  160, 458,
  160, 460,
  160, 465,
  160, 467,
  160, 471,
  160, 475,
  160, 476,
  160, 478,
  160, 479,
  160, 481,
  160, 484,
  160, 486,
  160, 487,
  160, 494,
  160, 496,
  160, 497,
  160, 499,
  160, 500,
  161, 163,
  161, 164,
  161, 165,
  161, 166,
  161, 169,
  161, 170,
  161, 171,
  161, 172,
  161, 173,
  161, 175,
  161, 176,
  161, 177,
  161, 180,
  161, 181,
  161, 182,
  161, 183,
  161, 184,
  161, 185,
  161, 186,
  161, 187,
  161, 188,
  161, 189,
  161, 192,
  161, 194,
  161, 195,
  161, 199,
  161, 200,
  161, 203,
  161, 207,
  161, 208,
  161, 215,
  161, 216,
  161, 218,
  161, 220,
  161, 222,
  161, 223,
  161, 224,
  161, 225,
  161, 226,
  161, 228,
  161, 229,
  161, 231,
  161, 233,
  161, 234,
  161, 235,
  161, 239,
  161, 240,
  161, 241,
  161, 245,
  161, 253,
  161, 254,
  161, 258,
  161, 259,
  161, 261,
  161, 263,
  161, 268,
  161, 269,
  161, 270,
  161, 273,
  161, 274,
  161, 275,
  161, 276,
  161, 278,
  161, 279,
  161, 281,
  161, 282,
  161, 283,
  161, 284,
  161, 285,
  161, 286,
  161, 287,
  161, 289,
  161, 291,
  161, 295,
  161, 296,
  161, 300,
  161, 302,
  161, 304,
  161, 305,
  161, 307,
  161, 310,
  161, 311,
  161, 312,
  161, 314,
  161, 315,
  161, 316,
  161, 319,
  161, 320,
  161, 321,
  161, 324,
  161, 333,
  161, 334,
  161, 337,
  161, 343,
  161, 344,
  161, 346,
  161, 349,
  161, 350,
  161, 352,
  161, 353,
  161, 356,
  161, 359,
  161, 360,
  161, 364,
  161, 367,
  161, 368,
  161, 369,
  161, 373,
  161, 374,
  161, 375,
  161, 378,
  161, 382,
  161, 384,
  161, 386,
  161, 387,
  161, 388,
  161, 391,
  161, 393,
  161, 394,
  161, 395,
  161, 396,
  161, 398,
  161, 400,
  161, 401,
  161, 402,
  161, 403,
  161, 405,
  161, 406,
  161, 409,
  161, 413,
  161, 414,
  161, 415,
  161, 416,
  161, 418,
  161, 420,
  161, 421,
  161, 422,
  161, 424,
  161, 425,
  161, 427,
  161, 428,
  161, 429,
  161, 430,
  161, 431,
  161, 434,
  161, 435,
  161, 436,
  161, 437,
  161, 438,
  161, 439,
  161, 441,
  161, 445,
  161, 448,
  161, 451,
  161, 453,
  161, 454,
  161, 455,
  161, 457,
  161, 458,
  161, 459,
  161, 461,
  161, 463,
  161, 464,
  161, 465,
  161, 466,
  161, 467,
  161, 469,
  161, 479,
  161, 480,
  161, 481,
  161, 482,
  161, 485,
  161, 486,
  161, 491,
  161, 492,
  161, 497,
  161, 498,
  162, 165,
  162, 166,
  162, 167,
  162, 171,
  162, 174,
  162, 175,
  162, 179,
  162, 180,
  162, 181,
  162, 183,
  162, 185,
  162, 186,
  162, 189,
  162, 190,
  162, 192,
  162, 194,
  162, 195,
  162, 196,
  162, 201,
  162, 203,
  162, 204,
  162, 206,
  162, 207,
  162, 208,
  162, 211,
  162, 212,
  162, 215,
  162, 217,
  162, 218,
  162, 219,
  162, 221,
  162, 222,
  162, 224,
  162, 230,
  162, 231,
  162, 232,
  162, 234,
  162, 235,
  162, 236,
  162, 239,
  162, 243,
  162, 244,
  162, 245,
  162, 246,
  162, 247,
  162, 248,
  162, 249,
  162, 250,
  162, 255,
  162, 260,
  162, 262,
  162, 267,
  162, 268,
  162, 270,
  162, 272,
  162, 274,
  162, 275,
  162, 277,
  162, 279,
  162, 282,
  162, 284,
  162, 285,
  162, 286,
  162, 289,
  162, 293,
  162, 295,
  162, 296,
  162, 297,
  162, 301,
  162, 305,
  162, 306,
  162, 307,
  162, 309,
  162, 310,
  162, 312,
  162, 313,
  162, 316,
  162, 317,
  162, 319,
  162, 320,
  162, 322,
  162, 328,
  162, 329,
  162, 332,
  162, 335,
  162, 336,
  162, 337,
  162, 341,
  162, 343,
  162, 344,
  162, 345,
  162, 346,
  162, 349,
  162, 350,
  162, 351,
  162, 352,
  162, 355,
  162, 356,
  162, 362,
  162, 363,
  162, 364,
  162, 366,
  162, 368,
  162, 369,
  162, 370,
  162, 371,
  162, 374,
  162, 375,
  162, 380,
  162, 382,
  162, 384,
  162, 389,
  162, 390,
  162, 391,
  162, 392,
  162, 394,
  162, 395,
  162, 398,
  162, 400,
  162, 402,
  162, 403,
  162, 404,
  162, 405,
  162, 407,
  162, 415,
  162, 418,
  162, 422,
  162, 424,
  162, 427,
  162, 428,
  162, 429,
  162, 430,
  162, 431,
  162, 432,
  162, 433,
  162, 435,
  162, 436,
  162, 439,
  162, 440,
  162, 443,
  162, 447,
  162, 448,
  162, 449,
  162, 451,
  162, 452,
  162, 453,
  162, 455,
  162, 459,
  162, 462,
  162, 463,
  162, 465,
  162, 466,
  162, 468,
  162, 469,
  162, 473,
  162, 474,
  162, 478,
  162, 480,
  162, 481,
  162, 482,
  162, 485,
  162, 486,
  162, 487,
  162, 490,
  162, 492,
  162, 494,
  162, 495,
  162, 496,
  162, 497,
  162, 498,
  162, 500,
  163, 164,
  163, 166,
  163, 168,
  163, 171,
  163, 175,
  163, 176,
  163, 181,
  163, 183,
  163, 184,
  163, 187,
  163, 189,
  163, 192,
  163, 194,
  163, 197,
  163, 198,
  163, 200,
  163, 202,
  163, 203,
  163, 204,
  163, 207,
  163, 208,
  163, 210,
  163, 212,
  163, 213,
  163, 215,
  163, 216,
  163, 217,
  163, 220,
  163, 221,
  163, 222,
  163, 223,
  163, 224,
  163, 225,
  163, 228,
  163, 230,
  163, 231,
  163, 233,
  163, 234,
  163, 235,
  163, 237,
  163, 238,
  163, 239,
  163, 241,
  163, 242,
  163, 243,
  163, 247,
  163, 248,
  163, 251,
  163, 252,
  163, 254,
  163, 255,
  163, 258,
  163, 259,
  163, 263,
  163, 265,
  163, 267,
  163, 268,
  163, 270,
  163, 271,
  163, 272,
  163, 273,
  163, 274,
  163, 277,
  163, 278,
  163, 279,
  163, 283,
  163, 284,
  163, 285,
  163, 288,
  163, 289,
  163, 290,
  163, 294,
  163, 295,
  163, 298,
  163, 300,
  163, 301,
  163, 302,
  163, 303,
  163, 305,
  163, 308,
  163, 310,
  163, 314,
  163, 315,
  163, 316,
  163, 319,
  163, 321,
  163, 322,
  163, 323,
  163, 325,
  163, 326,
  163, 328,
  163, 329,
  163, 330,
  163, 334,
  163, 335,
  163, 336,
  163, 341,
  163, 342,
  163, 345,
  163, 349,
  163, 354,
  163, 355,
  163, 356,
  163, 358,
  163, 359,
  163, 361,
  163, 363,
  163, 364,
  163, 366,
  163, 370,
  163, 372,
  163, 374,
  163, 375,
  163, 377,
  163, 379,
  163, 381,
  163, 386,
  163, 388,
  163, 389,
  163, 390,
  163, 395,
  163, 396,
  163, 397,
  163, 398,
  163, 401,
  163, 404,
  163, 405,
  163, 409,
  163, 410,
  163, 411,
  163, 412,
  163, 413,
  163, 415,
  163, 416,
  163, 418,
  163, 419,
  163, 420,
  163, 421,
  163, 423,
  163, 424,
  163, 425,
  163, 426,
  163, 428,
  163, 430,
  163, 431,
  163, 432,
  163, 435,
  163, 438,
  163, 440,
  163, 443,
  163, 444,
  163, 445,
  163, 448,
  163, 449,
  163, 450,
  163, 451,
  163, 456,
  163, 457,
  163, 458,
  163, 459,
  163, 465,
  163, 466,
  163, 467,
  163, 470,
  163, 471,
  163, 479,
  163, 482,
  163, 483,
  163, 484,
  163, 487,
  163, 490,
  163, 491,
  163, 494,
  163, 495,
  163, 496,
  163, 497,
  163, 498,
  163, 499,
  163, 500,
  164, 165,
  164, 166,
  164, 167,
  164, 168,
  164, 170,
  164, 172,
  164, 173,
  164, 177,
  164, 178,
  164, 179,
  164, 180,
  164, 181,
  164, 182,
  164, 184,
  164, 185,
  164, 186,
  164, 187,
  164, 191,
  164, 192,
  164, 193,
  164, 195,
  164, 196,
  164, 197,
  164, 198,
  164, 205,
  164, 208,
  164, 209,
  164, 212,
  164, 215,
  164, 216,
  164, 220,
  164, 221,
  164, 222,
  164, 223,
  164, 224,
  164, 226,
  164, 227,
  164, 228,
  164, 229,
  164, 230,
  164, 232,
  164, 233,
  164, 235,
  164, 238,
  164, 239,
  164, 242,
  164, 243,
  164, 244,
  164, 245,
  164, 248,
  164, 249,
  164, 250,
  164, 251,
  164, 254,
  164, 255,
  164, 256,
  164, 257,
  164, 260,
  164, 263,
  164, 267,
  164, 269,
  164, 270,
  164, 273,
  164, 274,
  164, 277,
  164, 279,
  164, 281,
  164, 283,
  164, 285,
  164, 288,
  164, 290,
  164, 292,
  164, 293,
  164, 295,
  164, 298,
  164, 299,
  164, 300,
  164, 302,
  164, 303,
  164, 308,
  164, 310,
  164, 313,
  164, 317,
  164, 318,
  164, 319,
  164, 322,
  164, 323,
  164, 325,
  164, 326,
  164, 331,
  164, 332,
  164, 334,
  164, 335,
  164, 337,
  164, 339,
  164, 341,
  164, 342,
  164, 345,
  164, 348,
  164, 352,
  164, 353,
  164, 356,
  164, 357,
  164, 361,
  164, 364,
  164, 365,
  164, 368,
  164, 376,
  164, 378,
  164, 379,
  164, 384,
  164, 386,
  164, 387,
  164, 388,
  164, 389,
  164, 390,
  164, 392,
  164, 393,
  164, 394,
  164, 395,
  164, 396,
  164, 398,
  164, 400,
  164, 402,
  164, 405,
  164, 406,
  164, 407,
  164, 408,
  164, 411,
  164, 416,
  164, 418,
  164, 419,
  164, 427,
  164, 432,
  164, 436,
  164, 438,
  164, 439,
  164, 444,
  164, 445,
  164, 446,
  164, 448,
  164, 449,
  164, 450,
  164, 452,
  164, 455,
  164, 456,
  164, 457,
  164, 461,
  164, 464,
  164, 466,
  164, 467,
  164, 469,
  164, 470,
  164, 471,
  164, 473,
  164, 474,
  164, 477,
  164, 479,
  164, 480,
  164, 483,
  164, 485,
  164, 487,
  164, 488,
  164, 490,
  164, 493,
  164, 495,
  164, 497,
  164, 498,
  164, 500,
  165, 170,
  165, 171,
  165, 173,
  165, 177,
  165, 180,
  165, 183,
  165, 186,
  165, 187,
  165, 191,
  165, 192,
  165, 193,
  165, 196,
  165, 197,
  165, 198,
  165, 199,
  165, 201,
  165, 202,
  165, 203,
  165, 206,
  165, 207,
  165, 208,
  165, 209,
  165, 216,
  165, 217,
  165, 218,
  165, 220,
  165, 221,
  165, 222,
  165, 224,
  165, 225,
  165, 226,
  165, 228,
  165, 230,
  165, 233,
  165, 236,
  165, 238,
  165, 239,
  165, 242,
  165, 243,
  165, 246,
  165, 248,
  165, 249,
  165, 251,
  165, 252,
  165, 253,
  165, 256,
  165, 257,
  165, 258,
  165, 263,
  165, 264,
  165, 266,
  165, 270,
  165, 271,
  165, 277,
  165, 283,
  165, 284,
  165, 285,
  165, 287,
  165, 288,
  165, 289,
  165, 290,
  165, 292,
  165, 295,
  165, 296,
  165, 298,
  165, 301,
  165, 302,
  165, 305,
  165, 306,
  165, 309,
  165, 310,
  165, 311,
  165, 312,
  165, 316,
  165, 317,
  165, 322,
  165, 325,
  165, 326,
  165, 327,
  165, 329,
  165, 330,
  165, 334,
  165, 336,
  165, 339,
  165, 341,
  165, 343,
  165, 344,
  165, 346,
  165, 348,
  165, 349,
  165, 351,
  165, 353,
  165, 354,
  165, 357,
  165, 360,
  165, 361,
  165, 362,
  165, 363,
  165, 364,
  165, 368,
  165, 373,
  165, 374,
  165, 375,
  165, 376,
  165, 379,
  165, 380,
  165, 384,
  165, 387,
  165, 390,
  165, 393,
  165, 395,
  165, 396,
  165, 399,
  165, 401,
  165, 402,
  165, 403,
  165, 406,
  165, 409,
  165, 411,
  165, 417,
  165, 419,
  165, 420,
  165, 422,
  165, 423,
  165, 424,
  165, 428,
  165, 430,
  165, 433,
  165, 434,
  165, 436,
  165, 437,
  165, 438,
  165, 439,
  165, 441,
  165, 442,
  165, 446,
  165, 448,
  165, 451,
  165, 452,
  165, 456,
  165, 457,
  165, 458,
  165, 459,
  165, 460,
  165, 461,
  165, 462,
  165, 464,
  165, 465,
  165, 466,
  165, 469,
  165, 470,
  165, 471,
  165, 472,
  165, 474,
  165, 475,
  165, 476,
  165, 480,
  165, 482,
  165, 483,
  165, 485,
  165, 486,
  165, 492,
  165, 495,
  165, 496,
  165, 497,
  165, 498,
  165, 499,
  166, 169,
  166, 170,
  166, 171,
  166, 172,
  166, 174,
  166, 175,
  166, 177,
  166, 178,
  166, 188,
  166, 189,
  166, 191,
  166, 193,
  166, 194,
  166, 196,
  166, 197,
  166, 198,
  166, 199,
  166, 200,
  166, 201,
  166, 202,
  166, 204,
  166, 206,
  166, 209,
  166, 210,
  166, 211,
  166, 212,
  166, 213,
  166, 219,
  166, 220,
  166, 221,
  166, 222,
  166, 224,
  166, 225,
  166, 228,
  166, 231,
  166, 239,
  166, 241,
  166, 242,
  166, 243,
  166, 245,
  166, 247,
  166, 249,
  166, 250,
  166, 251,
  166, 252,
  166, 253,
  166, 258,
  166, 264,
  166, 268,
  166, 270,
  166, 272,
  166, 277,
  166, 279,
  166, 280,
  166, 284,
  166, 285,
  166, 286,
  166, 287,
  166, 288,
  166, 290,
  166, 291,
  166, 294,
  166, 295,
  166, 296,
  166, 301,
  166, 302,
  166, 303,
  166, 304,
  166, 306,
  166, 308,
  166, 309,
  166, 313,
  166, 316,
  166, 318,
  166, 320,
  166, 321,
  166, 322,
  166, 323,
  166, 324,
  166, 325,
  166, 326,
  166, 330,
  166, 331,
  166, 332,
  166, 334,
  166, 335,
  166, 336,
  166, 337,
  166, 338,
  166, 351,
  166, 352,
  166, 354,
  166, 356,
  166, 358,
  166, 360,
  166, 361,
  166, 363,
  166, 366,
  166, 367,
  166, 371,
  166, 372,
  166, 374,
  166, 375,
  166, 376,
  166, 377,
  166, 382,
  166, 384,
  166, 390,
  166, 395,
  166, 397,
  166, 398,
  166, 399,
  166, 401,
  166, 406,
  166, 407,
  166, 408,
  166, 410,
  166, 415,
  166, 419,
  166, 423,
  166, 424,
  166, 426,
  166, 428,
  166, 433,
  166, 434,
  166, 435,
  166, 436,
  166, 437,
  166, 438,
  166, 442,
  166, 444,
  166, 447,
  166, 448,
  166, 451,
  166, 452,
  166, 453,
  166, 455,
  166, 456,
  166, 457,
  166, 462,
  166, 463,
  166, 467,
  166, 469,
  166, 470,
  166, 471,
  166, 472,
  166, 474,
  166, 477,
  166, 479,
  166, 481,
  166, 484,
  166, 485,
  166, 486,
  166, 488,
  166, 490,
  166, 493,
  166, 494,
  166, 495,
  166, 496,
  166, 499,
  166, 500,
  167, 171,
  167, 174,
  167, 175,
  167, 176,
  167, 177,
  167, 180,
  167, 181,
  167, 182,
  167, 185,
  167, 187,
  167, 189,
  167, 191,
  167, 192,
  167, 200,
  167, 201,
  167, 203,
  167, 204,
  167, 208,
  167, 209,
  167, 210,
  167, 212,
  167, 216,
  167, 218,
  167, 220,
  167, 224,
  167, 225,
  167, 226,
  167, 228,
  167, 229,
  167, 230,
  167, 231,
  167, 232,
  167, 235,
  167, 237,
  167, 241,
  167, 242,
  167, 244,
  167, 245,
  167, 247,
  167, 248,
  167, 250,
  167, 255,
  167, 256,
  167, 259,
  167, 261,
  167, 262,
  167, 263,
  167, 265,
  167, 268,
  167, 270,
  167, 273,
  167, 274,
  167, 276,
  167, 280,
  167, 282,
  167, 289,
  167, 291,
  167, 292,
  167, 293,
  167, 298,
  167, 302,
  167, 303,
  167, 304,
  167, 305,
  167, 306,
  167, 308,
  167, 313,
  167, 314,
  167, 316,
  167, 317,
  167, 318,
  167, 322,
  167, 329,
  167, 330,
  167, 332,
  167, 334,
  167, 335,
  167, 336,
  167, 337,
  167, 338,
  167, 340,
  167, 341,
  167, 343,
  167, 344,
  167, 349,
  167, 350,
  167, 351,
  167, 352,
  167, 354,
  167, 357,
  167, 361,
  167, 362,
  167, 363,
  167, 364,
  167, 365,
  167, 366,
  167, 368,
  167, 370,
  167, 371,
  167, 372,
  167, 373,
  167, 374,
  167, 375,
  167, 376,
  167, 378,
  167, 379,
  167, 382,
  167, 385,
  167, 386,
  167, 388,
  167, 391,
  167, 392,
  167, 395,
  167, 396,
  167, 398,
  167, 399,
  167, 403,
  167, 404,
  167, 405,
  167, 406,
  167, 407,
  167, 409,
  167, 410,
  167, 411,
  167, 413,
  167, 417,
  167, 421,
  167, 422,
  167, 428,
  167, 429,
  167, 430,
  167, 435,
  167, 438,
  167, 439,
  167, 440,
  167, 442,
  167, 444,
  167, 445,
  167, 447,
  167, 448,
  167, 456,
  167, 457,
  167, 467,
  167, 468,
  167, 474,
  167, 477,
  167, 480,
  167, 482,
  167, 484,
  167, 486,
  167, 487,
  167, 488,
  167, 489,
  167, 491,
  167, 493,
  167, 494,
  167, 496,
  167, 499,
  168, 172,
  168, 174,
  168, 176,
  168, 179,
  168, 180,
  168, 182,
  168, 183,
  168, 186,
  168, 187,
  168, 188,
  168, 189,
  168, 191,
  168, 193,
  168, 196,
  168, 198,
  168, 199,
  168, 200,
  168, 205,
  168, 206,
  168, 207,
  168, 209,
  168, 210,
  168, 212,
  168, 213,
  168, 216,
  168, 218,
  168, 221,
  168, 223,
  168, 228,
  168, 229,
  168, 231,
  168, 232,
  168, 233,
  168, 234,
  168, 235,
  168, 242,
  168, 243,
  168, 246,
  168, 247,
  168, 253,
  168, 256,
  168, 258,
  168, 259,
  168, 260,
  168, 261,
  168, 264,
  168, 266,
  168, 267,
  168, 269,
  168, 270,
  168, 272,
  168, 276,
  168, 279,
  168, 280,
  168, 282,
  168, 283,
  168, 284,
  168, 287,
  168, 288,
  168, 289,
  168, 290,
  168, 292,
  168, 294,
  168, 296,
  168, 297,
  168, 300,
  168, 301,
  168, 302,
  168, 308,
  168, 309,
  168, 311,
  168, 312,
  168, 315,
  168, 316,
  168, 318,
  168, 319,
  168, 320,
  168, 325,
  168, 326,
  168, 328,
  168, 329,
  168, 330,
  168, 335,
  168, 339,
  168, 341,
  168, 347,
  168, 349,
  168, 352,
  168, 353,
  168, 354,
  168, 356,
  168, 357,
  168, 359,
  168, 362,
  168, 363,
  168, 369,
  168, 370,
  168, 371,
  168, 373,
  168, 377,
  168, 379,
  168, 383,
  168, 384,
  168, 388,
  168, 395,
  168, 399,
  168, 402,
  168, 406,
  168, 407,
  168, 409,
  168, 411,
  168, 412,
  168, 413,
  168, 414,
  168, 415,
  168, 416,
  168, 418,
  168, 419,
  168, 425,
  168, 431,
  168, 432,
  168, 433,
  168, 435,
  168, 437,
  168, 440,
  168, 442,
  168, 444,
  168, 446,
  168, 447,
  168, 450,
  168, 451,
  168, 452,
  168, 453,
  168, 454,
  168, 456,
  168, 460,
  168, 461,
  168, 462,
  168, 463,
  168, 464,
  168, 465,
  168, 466,
  168, 468,
  168, 470,
  168, 475,
  168, 476,
  168, 477,
  168, 481,
  168, 482,
  168, 486,
  168, 488,
  168, 489,
  168, 494,
  168, 495,
  168, 499,
  169, 171,
  169, 173,
  169, 174,
  169, 175,
  169, 176,
  169, 178,
  169, 179,
  169, 180,
  169, 181,
  169, 184,
  169, 187,
  169, 188,
  169, 189,
  169, 190,
  169, 191,
  169, 193,
  169, 195,
  169, 198,
  169, 199,
  169, 201,
  169, 207,
  169, 209,
  169, 211,
  169, 212,
  169, 213,
  169, 216,
  169, 218,
  169, 219,
  169, 222,
  169, 224,
  169, 228,
  169, 230,
  169, 232,
  169, 238,
  169, 239,
  169, 245,
  169, 246,
  169, 247,
  169, 248,
  169, 249,
  169, 250,
  169, 251,
  169, 252,
  169, 263,
  169, 265,
  169, 267,
  169, 268,
  169, 269,
  169, 271,
  169, 272,
  169, 274,
  169, 276,
  169, 277,
  169, 279,
  169, 283,
  169, 284,
  169, 285,
  169, 286,
  169, 287,
  169, 288,
  169, 294,
  169, 298,
  169, 299,
  169, 300,
  169, 303,
  169, 304,
  169, 305,
  169, 307,
  169, 310,
  169, 312,
  169, 313,
  169, 314,
  169, 315,
  169, 316,
  169, 318,
  169, 321,
  169, 322,
  169, 323,
  169, 324,
  169, 328,
  169, 329,
  169, 330,
  169, 331,
  169, 333,
  169, 335,
  169, 337,
  169, 338,
  169, 340,
  169, 342,
  169, 343,
  169, 344,
  169, 345,
  169, 346,
  169, 351,
  169, 352,
  169, 354,
  169, 356,
  169, 357,
  169, 358,
  169, 359,
  169, 361,
  169, 363,
  169, 364,
  169, 365,
  169, 366,
  169, 371,
  169, 374,
  169, 376,
  169, 377,
  169, 379,
  169, 380,
  169, 381,
  169, 382,
  169, 384,
  169, 385,
  169, 387,
  169, 388,
  169, 392,
  169, 394,
  169, 398,
  169, 399,
  169, 400,
  169, 405,
  169, 406,
  169, 407,
  169, 408,
  169, 409,
  169, 411,
  169, 413,
  169, 421,
  169, 422,
  169, 425,
  169, 429,
  169, 430,
  169, 431,
  169, 434,
  169, 436,
  169, 438,
  169, 442,
  169, 443,
  169, 444,
  169, 447,
  169, 450,
  169, 451,
  169, 452,
  169, 453,
  169, 454,
  169, 464,
  169, 465,
  169, 466,
  169, 468,
  169, 469,
  169, 473,
  169, 474,
  169, 475,
  169, 477,
  169, 478,
  169, 479,
  169, 480,
  169, 481,
  169, 482,
  169, 484,
  169, 488,
  169, 489,
  169, 490,
  169, 491,
  169, 494,
  169, 496,
  169, 497,
  169, 500,
  170, 173,
  170, 176,
  170, 177,
  170, 179,
  170, 182,
  170, 186,
  170, 187,
  170, 190,
  170, 192,
  170, 193,
  170, 195,
  170, 196,
  170, 197,
  170, 199,
  170, 200,
  170, 201,
  170, 205,
  170, 206,
  170, 207,
  170, 208,
  170, 209,
  170, 210,
  170, 214,
  170, 215,
  170, 216,
  170, 217,
  170, 221,
  170, 222,
  170, 226,
  170, 227,
  170, 231,
  170, 233,
  170, 235,
  170, 236,
  170, 237,
  170, 239,
  170, 241,
  170, 242,
  170, 244,
  170, 245,
  170, 246,
  170, 251,
  170, 253,
  170, 254,
  170, 257,
  170, 258,
  170, 260,
  170, 261,
  170, 262,
  170, 265,
  170, 267,
  170, 271,
  170, 272,
  170, 273,
  170, 274,
  170, 276,
  170, 277,
  170, 280,
  170, 282,
  170, 285,
  170, 288,
  170, 292,
  170, 293,
  170, 294,
  170, 295,
  170, 296,
  170, 297,
  170, 300,
  170, 302,
  170, 306,
  170, 311,
  170, 312,
  170, 315,
  170, 316,
  170, 317,
  170, 318,
  170, 319,
  170, 320,
  170, 321,
  170, 322,
  170, 325,
  170, 328,
  170, 335,
  170, 339,
  170, 342,
  170, 343,
  170, 346,
  170, 347,
  170, 348,
  170, 349,
  170, 350,
  170, 351,
  170, 352,
  170, 353,
  170, 355,
  170, 359,
  170, 361,
  170, 362,
  170, 363,
  170, 367,
  170, 372,
  170, 375,
  170, 378,
  170, 379,
  170, 381,
  170, 382,
  170, 384,
  170, 385,
  170, 386,
  170, 388,
  170, 391,
  170, 393,
  170, 394,
  170, 395,
  170, 396,
  170, 399,
  170, 400,
  170, 401,
  170, 402,
  170, 403,
  170, 405,
  170, 406,
  170, 408,
  170, 410,
  170, 413,
  170, 414,
  170, 416,
  170, 417,
  170, 418,
  170, 420,
  170, 421,
  170, 423,
  170, 424,
  170, 426,
  170, 427,
  170, 431,
  170, 432,
  170, 438,
  170, 439,
  170, 440,
  170, 442,
  170, 448,
  170, 450,
  170, 451,
  170, 452,
  170, 453,
  170, 454,
  170, 455,
  170, 458,
  170, 459,
  170, 460,
  170, 462,
  170, 463,
  170, 464,
  170, 465,
  170, 466,
  170, 467,
  170, 468,
  170, 469,
  170, 470,
  170, 473,
  170, 477,
  170, 478,
  170, 480,
  170, 482,
  170, 483,
  170, 484,
  170, 486,
  170, 489,
  170, 491,
  170, 493,
  170, 497,
  170, 500,
  171, 173,
  171, 174,
  171, 177,
  171, 179,
  171, 180,
  171, 181,
  171, 182,
  171, 183,
  171, 184,
  171, 189,
  171, 190,
  171, 195,
  171, 196,
  171, 199,
  171, 200,
  171, 203,
  171, 204,
  171, 205,
  171, 206,
  171, 207,
  171, 210,
  171, 213,
  171, 214,
  171, 215,
  171, 217,
  171, 219,
  171, 220,
  171, 221,
  171, 222,
  171, 223,
  171, 225,
  171, 226,
  171, 227,
  171, 228,
  171, 229,
  171, 231,
  171, 232,
  171, 233,
  171, 234,
  171, 236,
  171, 238,
  171, 239,
  171, 240,
  171, 241,
  171, 242,
  171, 243,
  171, 245,
  171, 251,
  171, 256,
  171, 259,
  171, 260,
  171, 261,
  171, 263,
  171, 264,
  171, 265,
  171, 266,
  171, 271,
  171, 272,
  171, 273,
  171, 276,
  171, 279,
  171, 283,
  171, 284,
  171, 286,
  171, 288,
  171, 289,
  171, 290,
  171, 296,
  171, 297,
  171, 306,
  171, 307,
  171, 308,
  171, 311,
  171, 312,
  171, 314,
  171, 315,
  171, 316,
  171, 319,
  171, 320,
  171, 323,
  171, 326,
  171, 331,
  171, 334,
  171, 336,
  171, 337,
  171, 339,
  171, 343,
  171, 347,
  171, 348,
  171, 349,
  171, 350,
  171, 352,
  171, 359,
  171, 360,
  171, 361,
  171, 362,
  171, 363,
  171, 364,
  171, 365,
  171, 366,
  171, 367,
  171, 368,
  171, 369,
  171, 371,
  171, 379,
  171, 381,
  171, 384,
  171, 386,
  171, 387,
  171, 389,
  171, 390,
  171, 393,
  171, 396,
  171, 397,
  171, 398,
  171, 404,
  171, 405,
  171, 406,
  171, 408,
  171, 409,
  171, 412,
  171, 415,
  171, 416,
  171, 417,
  171, 420,
  171, 423,
  171, 427,
  171, 428,
  171, 429,
  171, 432,
  171, 433,
  171, 434,
  171, 435,
  171, 436,
  171, 437,
  171, 440,
  171, 442,
  171, 444,
  171, 447,
  171, 449,
  171, 452,
  171, 453,
  171, 455,
  171, 458,
  171, 464,
  171, 465,
  171, 466,
  171, 467,
  171, 470,
  171, 471,
  171, 474,
  171, 479,
  171, 481,
  171, 485,
  171, 486,
  171, 487,
  171, 488,
  171, 489,
  171, 491,
  171, 494,
  171, 496,
  172, 173,
  172, 174,
  172, 175,
  172, 176,
  172, 179,
  172, 180,
  172, 187,
  172, 188,
  172, 189,
  172, 191,
  172, 195,
  172, 198,
  172, 201,
  172, 203,
  172, 205,
  172, 207,
  172, 208,
  172, 210,
  172, 213,
  172, 214,
  172, 221,
  172, 225,
  172, 226,
  172, 229,
  172, 230,
  172, 232,
  172, 234,
  172, 235,
  172, 236,
  172, 237,
  172, 238,
  172, 239,
  172, 241,
  172, 243,
  172, 244,
  172, 248,
  172, 249,
  172, 253,
  172, 255,
  172, 256,
  172, 265,
  172, 266,
  172, 268,
  172, 272,
  172, 273,
  172, 274,
  172, 275,
  172, 276,
  172, 277,
  172, 279,
  172, 281,
  172, 282,
  172, 283,
  172, 284,
  172, 285,
  172, 286,
  172, 288,
  172, 289,
  172, 290,
  172, 292,
  172, 294,
  172, 295,
  172, 296,
  172, 297,
  172, 298,
  172, 299,
  172, 300,
  172, 301,
  172, 304,
  172, 305,
  172, 314,
  172, 315,
  172, 320,
  172, 321,
  172, 327,
  172, 330,
  172, 331,
  172, 333,
  172, 334,
  172, 340,
  172, 342,
  172, 343,
  172, 344,
  172, 345,
  172, 348,
  172, 351,
  172, 352,
  172, 353,
  172, 354,
  172, 355,
  172, 356,
  172, 359,
  172, 363,
  172, 364,
  172, 366,
  172, 369,
  172, 370,
  172, 371,
  172, 372,
  172, 373,
  172, 384,
  172, 385,
  172, 388,
  172, 393,
  172, 397,
  172, 401,
  172, 402,
  172, 404,
  172, 405,
  172, 406,
  172, 407,
  172, 409,
  172, 410,
  172, 412,
  172, 413,
  172, 414,
  172, 415,
  172, 416,
  172, 417,
  172, 418,
  172, 419,
  172, 420,
  172, 424,
  172, 426,
  172, 428,
  172, 433,
  172, 434,
  172, 435,
  172, 439,
  172, 441,
  172, 442,
  172, 443,
  172, 444,
  172, 445,
  172, 446,
  172, 447,
  172, 451,
  172, 454,
  172, 455,
  172, 456,
  172, 459,
  172, 462,
  172, 463,
  172, 464,
  172, 467,
  172, 473,
  172, 474,
  172, 477,
  172, 478,
  172, 480,
  172, 481,
  172, 486,
  172, 487,
  172, 490,
  172, 493,
  172, 494,
  172, 495,
  172, 496,
  172, 498,
  172, 499,
  172, 500,
  173, 174,
  173, 175,
  173, 176,
  173, 178,
  173, 179,
  173, 183,
  173, 184,
  173, 185,
  173, 187,
  173, 188,
  173, 189,
  173, 191,
  173, 193,
  173, 197,
  173, 198,
  173, 200,
  173, 201,
  173, 203,
  173, 206,
  173, 208,
  173, 209,
  173, 211,
  173, 212,
  173, 220,
  173, 221,
  173, 222,
  173, 223,
  173, 224,
  173, 226,
  173, 228,
  173, 231,
  173, 232,
  173, 234,
  173, 235,
  173, 236,
  173, 237,
  173, 239,
  173, 242,
  173, 245,
  173, 247,
  173, 248,
  173, 249,
  173, 251,
  173, 252,
  173, 253,
  173, 254,
  173, 258,
  173, 259,
  173, 261,
  173, 262,
  173, 263,
  173, 265,
  173, 267,
  173, 268,
  173, 269,
  173, 272,
  173, 276,
  173, 277,
  173, 278,
  173, 282,
  173, 286,
  173, 287,
  173, 290,
  173, 294,
  173, 295,
  173, 298,
  173, 302,
  173, 305,
  173, 307,
  173, 310,
  173, 312,
  173, 313,
  173, 316,
  173, 318,
  173, 320,
  173, 321,
  173, 323,
  173, 325,
  173, 326,
  173, 327,
  173, 329,
  173, 331,
  173, 336,
  173, 338,
  173, 339,
  173, 342,
  173, 344,
  173, 345,
  173, 349,
  173, 350,
  173, 354,
  173, 355,
  173, 358,
  173, 359,
  173, 361,
  173, 366,
  173, 367,
  173, 370,
  173, 371,
  173, 372,
  173, 373,
  173, 374,
  173, 376,
  173, 377,
  173, 379,
  173, 380,
  173, 382,
  173, 384,
  173, 385,
  173, 386,
  173, 388,
  173, 390,
  173, 391,
  173, 394,
  173, 399,
  173, 401,
  173, 405,
  173, 408,
  173, 411,
  173, 413,
  173, 414,
  173, 418,
  173, 421,
  173, 423,
  173, 426,
  173, 427,
  173, 428,
  173, 429,
  173, 430,
  173, 431,
  173, 433,
  173, 442,
  173, 444,
  173, 445,
  173, 447,
  173, 450,
  173, 451,
  173, 454,
  173, 455,
  173, 457,
  173, 458,
  173, 465,
  173, 468,
  173, 469,
  173, 470,
  173, 471,
  173, 472,
  173, 473,
  173, 474,
  173, 478,
  173, 484,
  173, 489,
  173, 492,
  173, 493,
  173, 494,
  173, 495,
  173, 497,
  173, 498,
  173, 499,
  173, 500,
  174, 175,
  174, 177,
  174, 179,
  174, 180,
  174, 182,
  174, 183,
  174, 184,
  174, 189,
  174, 190,
  174, 193,
  174, 194,
  174, 197,
  174, 198,
  174, 199,
  174, 201,
  174, 203,
  174, 206,
  174, 211,
  174, 219,
  174, 222,
  174, 223,
  174, 224,
  174, 225,
  174, 226,
  174, 232,
  174, 233,
  174, 234,
  174, 237,
  174, 238,
  174, 239,
  174, 241,
  174, 244,
  174, 250,
  174, 252,
  174, 253,
  174, 261,
  174, 262,
  174, 266,
  174, 267,
  174, 270,
  174, 273,
  174, 275,
  174, 276,
  174, 277,
  174, 278,
  174, 282,
  174, 285,
  174, 287,
  174, 288,
  174, 290,
  174, 291,
  174, 294,
  174, 296,
  174, 300,
  174, 303,
  174, 308,
  174, 310,
  174, 311,
  174, 314,
  174, 315,
  174, 317,
  174, 319,
  174, 320,
  174, 323,
  174, 325,
  174, 329,
  174, 330,
  174, 332,
  174, 335,
  174, 339,
  174, 340,
  174, 341,
  174, 349,
  174, 351,
  174, 354,
  174, 360,
  174, 363,
  174, 365,
  174, 366,
  174, 368,
  174, 373,
  174, 374,
  174, 375,
  174, 378,
  174, 380,
  174, 381,
  174, 383,
  174, 384,
  174, 387,
  174, 390,
  174, 394,
  174, 395,
  174, 396,
  174, 397,
  174, 398,
  174, 402,
  174, 403,
  174, 406,
  174, 412,
  174, 414,
  174, 417,
  174, 418,
  174, 421,
  174, 422,
  174, 423,
  174, 426,
  174, 428,
  174, 430,
  174, 432,
  174, 433,
  174, 435,
  174, 436,
  174, 437,
  174, 439,
  174, 444,
  174, 446,
  174, 448,
  174, 451,
  174, 452,
  174, 453,
  174, 455,
  174, 460,
  174, 463,
  174, 464,
  174, 465,
  174, 466,
  174, 467,
  174, 470,
  174, 471,
  174, 475,
  174, 476,
  174, 478,
  174, 482,
  174, 483,
  174, 485,
  174, 487,
  174, 488,
  174, 489,
  174, 492,
  174, 493,
  174, 494,
  174, 497,
  174, 498,
  174, 499,
  175, 180,
  175, 182,
  175, 184,
  175, 185,
  175, 186,
  175, 187,
  175, 188,
  175, 189,
  175, 190,
  175, 192,
  175, 193,
  175, 194,
  175, 195,
  175, 197,
  175, 199,
  175, 201,
  175, 203,
  175, 205,
  175, 206,
  175, 207,
  175, 210,
  175, 211,
  175, 213,
  175, 214,
  175, 216,
  175, 219,
  175, 220,
  175, 222,
  175, 225,
  175, 226,
  175, 227,
  175, 232,
  175, 234,
  175, 237,
  175, 240,
  175, 241,
  175, 242,
  175, 243,
  175, 248,
  175, 252,
  175, 253,
  175, 256,
  175, 257,
  175, 259,
  175, 260,
  175, 261,
  175, 262,
  175, 263,
  175, 266,
  175, 268,
  175, 269,
  175, 270,
  175, 271,
  175, 278,
  175, 279,
  175, 280,
  175, 281,
  175, 283,
  175, 285,
  175, 286,
  175, 288,
  175, 290,
  175, 295,
  175, 296,
  175, 297,
  175, 300,
  175, 302,
  175, 306,
  175, 307,
  175, 313,
  175, 314,
  175, 315,
  175, 317,
  175, 319,
  175, 320,
  175, 321,
  175, 324,
  175, 327,
  175, 328,
  175, 330,
  175, 332,
  175, 333,
  175, 336,
  175, 337,
  175, 340,
  175, 342,
  175, 343,
  175, 346,
  175, 347,
  175, 349,
  175, 351,
  175, 354,
  175, 356,
  175, 357,
  175, 359,
  175, 360,
  175, 362,
  175, 364,
  175, 365,
  175, 367,
  175, 369,
  175, 374,
  175, 375,
  175, 381,
  175, 382,
  175, 390,
  175, 391,
  175, 392,
  175, 393,
  175, 394,
  175, 395,
  175, 396,
  175, 397,
  175, 398,
  175, 399,
  175, 401,
  175, 402,
  175, 403,
  175, 405,
  175, 407,
  175, 416,
  175, 417,
  175, 419,
  175, 424,
  175, 427,
  175, 431,
  175, 432,
  175, 433,
  175, 434,
  175, 437,
  175, 438,
  175, 439,
  175, 440,
  175, 441,
  175, 443,
  175, 445,
  175, 448,
  175, 451,
  175, 452,
  175, 459,
  175, 465,
  175, 467,
  175, 468,
  175, 469,
  175, 470,
  175, 471,
  175, 475,
  175, 477,
  175, 479,
  175, 481,
  175, 482,
  175, 483,
  175, 486,
  175, 487,
  175, 490,
  175, 492,
  175, 496,
  175, 497,
  175, 500,
  176, 178,
  176, 179,
  176, 180,
  176, 182,
  176, 183,
  176, 185,
  176, 187,
  176, 192,
  176, 195,
  176, 196,
  176, 199,
  176, 200,
  176, 201,
  176, 202,
  176, 203,
  176, 204,
  176, 206,
  176, 208,
  176, 209,
  176, 210,
  176, 214,
  176, 219,
  176, 220,
  176, 222,
  176, 223,
  176, 225,
  176, 226,
  176, 228,
  176, 229,
  176, 232,
  176, 233,
  176, 234,
  176, 235,
  176, 237,
  176, 240,
  176, 241,
  176, 242,
  176, 244,
  176, 246,
  176, 247,
  176, 249,
  176, 252,
  176, 253,
  176, 257,
  176, 258,
  176, 259,
  176, 262,
  176, 264,
  176, 265,
  176, 271,
  176, 275,
  176, 276,
  176, 277,
  176, 278,
  176, 279,
  176, 282,
  176, 284,
  176, 285,
  176, 287,
  176, 289,
  176, 290,
  176, 293,
  176, 294,
  176, 295,
  176, 298,
  176, 299,
  176, 302,
  176, 304,
  176, 310,
  176, 311,
  176, 317,
  176, 319,
  176, 321,
  176, 322,
  176, 323,
  176, 325,
  176, 326,
  176, 327,
  176, 329,
  176, 330,
  176, 333,
  176, 335,
  176, 336,
  176, 337,
  176, 340,
  176, 343,
  176, 346,
  176, 350,
  176, 351,
  176, 354,
  176, 355,
  176, 357,
  176, 358,
  176, 360,
  176, 361,
  176, 363,
  176, 364,
  176, 366,
  176, 369,
  176, 371,
  176, 374,
  176, 376,
  176, 379,
  176, 380,
  176, 381,
  176, 383,
  176, 385,
  176, 386,
  176, 390,
  176, 391,
  176, 392,
  176, 394,
  176, 397,
  176, 398,
  176, 407,
  176, 409,
  176, 411,
  176, 413,
  176, 415,
  176, 416,
  176, 417,
  176, 419,
  176, 420,
  176, 421,
  176, 422,
  176, 423,
  176, 425,
  176, 426,
  176, 427,
  176, 428,
  176, 429,
  176, 433,
  176, 436,
  176, 442,
  176, 444,
  176, 445,
  176, 446,
  176, 447,
  176, 449,
  176, 450,
  176, 451,
  176, 453,
  176, 454,
  176, 456,
  176, 459,
  176, 460,
  176, 461,
  176, 463,
  176, 464,
  176, 466,
  176, 467,
  176, 468,
  176, 471,
  176, 477,
  176, 478,
  176, 479,
  176, 480,
  176, 483,
  176, 485,
  176, 489,
  176, 490,
  176, 493,
  176, 494,
  176, 496,
  176, 498,
  176, 499,
  177, 178,
  177, 180,
  177, 181,
  177, 184,
  177, 185,
  177, 190,
  177, 191,
  177, 194,
  177, 197,
  177, 201,
  177, 203,
  177, 205,
  177, 206,
  177, 209,
  177, 210,
  177, 212,
  177, 214,
  177, 216,
  177, 217,
  177, 221,
  177, 223,
  177, 227,
  177, 229,
  177, 231,
  177, 233,
  177, 235,
  177, 237,
  177, 238,
  177, 240,
  177, 241,
  177, 244,
  177, 248,
  177, 252,
  177, 253,
  177, 254,
  177, 255,
  177, 256,
  177, 259,
  177, 260,
  177, 261,
  177, 262,
  177, 263,
  177, 264,
  177, 265,
  177, 268,
  177, 272,
  177, 274,
  177, 275,
  177, 277,
  177, 281,
  177, 282,
  177, 284,
  177, 285,
  177, 287,
  177, 288,
  177, 289,
  177, 290,
  177, 291,
  177, 299,
  177, 301,
  177, 306,
  177, 307,
  177, 308,
  177, 310,
  177, 315,
  177, 317,
  177, 318,
  177, 320,
  177, 323,
  177, 324,
  177, 325,
  177, 326,
  177, 328,
  177, 330,
  177, 331,
  177, 332,
  177, 333,
  177, 337,
  177, 339,
  177, 340,
  177, 343,
  177, 344,
  177, 346,
  177, 347,
  177, 351,
  177, 352,
  177, 353,
  177, 354,
  177, 355,
  177, 356,
  177, 357,
  177, 358,
  177, 361,
  177, 363,
  177, 364,
  177, 366,
  177, 370,
  177, 371,
  177, 375,
  177, 376,
  177, 377,
  177, 379,
  177, 381,
  177, 382,
  177, 383,
  177, 384,
  177, 387,
  177, 389,
  177, 390,
  177, 392,
  177, 393,
  177, 394,
  177, 399,
  177, 401,
  177, 403,
  177, 406,
  177, 407,
  177, 409,
  177, 412,
  177, 417,
  177, 418,
  177, 419,
  177, 421,
  177, 422,
  177, 426,
  177, 427,
  177, 428,
  177, 430,
  177, 431,
  177, 432,
  177, 433,
  177, 439,
  177, 441,
  177, 443,
  177, 444,
  177, 447,
  177, 448,
  177, 449,
  177, 450,
  177, 454,
  177, 455,
  177, 456,
  177, 458,
  177, 460,
  177, 461,
  177, 462,
  177, 463,
  177, 464,
  177, 465,
  177, 466,
  177, 467,
  177, 468,
  177, 469,
  177, 470,
  177, 471,
  177, 472,
  177, 475,
  177, 479,
  177, 480,
  177, 482,
  177, 485,
  177, 488,
  177, 493,
  177, 494,
  177, 495,
  177, 496,
  177, 498,
  177, 499,
  178, 180,
  178, 184,
  178, 188,
  178, 190,
  178, 191,
  178, 192,
  178, 193,
  178, 195,
  178, 200,
  178, 204,
  178, 206,
  178, 208,
  178, 209,
  178, 215,
  178, 218,
  178, 219,
  178, 220,
  178, 222,
  178, 226,
  178, 228,
  178, 230,
  178, 234,
  178, 235,
  178, 237,
  178, 238,
  178, 240,
  178, 243,
  178, 244,
  178, 247,
  178, 249,
  178, 253,
  178, 255,
  178, 260,
  178, 262,
  178, 264,
  178, 265,
  178, 266,
  178, 267,
  178, 268,
  178, 269,
  178, 270,
  178, 272,
  178, 273,
  178, 274,
  178, 277,
  178, 280,
  178, 281,
  178, 282,
  178, 283,
  178, 284,
  178, 286,
  178, 288,
  178, 289,
  178, 292,
  178, 293,
  178, 294,
  178, 297,
  178, 298,
  178, 299,
  178, 302,
  178, 305,
  178, 306,
  178, 308,
  178, 309,
  178, 314,
  178, 315,
  178, 318,
  178, 319,
  178, 320,
  178, 321,
  178, 323,
  178, 325,
  178, 327,
  178, 329,
  178, 331,
  178, 335,
  178, 337,
  178, 338,
  178, 341,
  178, 342,
  178, 344,
  178, 346,
  178, 347,
  178, 349,
  178, 350,
  178, 353,
  178, 355,
  178, 362,
  178, 363,
  178, 367,
  178, 369,
  178, 370,
  178, 372,
  178, 374,
  178, 375,
  178, 378,
  178, 379,
  178, 381,
  178, 384,
  178, 386,
  178, 387,
  178, 388,
  178, 391,
  178, 392,
  178, 393,
  178, 394,
  178, 396,
  178, 398,
  178, 399,
  178, 400,
  178, 401,
  178, 407,
  178, 409,
  178, 410,
  178, 412,
  178, 418,
  178, 424,
  178, 425,
  178, 427,
  178, 429,
  178, 430,
  178, 433,
  178, 437,
  178, 438,
  178, 439,
  178, 444,
  178, 446,
  178, 447,
  178, 449,
  178, 452,
  178, 453,
  178, 454,
  178, 455,
  178, 457,
  178, 458,
  178, 459,
  178, 460,
  178, 464,
  178, 465,
  178, 466,
  178, 468,
  178, 470,
  178, 472,
  178, 473,
  178, 474,
  178, 475,
  178, 476,
  178, 479,
  178, 480,
  178, 487,
  178, 492,
  178, 494,
  179, 180,
  179, 183,
  179, 185,
  179, 186,
  179, 188,
  179, 189,
  179, 191,
  179, 192,
  179, 193,
  179, 196,
  179, 198,
  179, 199,
  179, 200,
  179, 202,
  179, 205,
  179, 206,
  179, 208,
  179, 210,
  179, 213,
  179, 214,
  179, 215,
  179, 216,
  179, 219,
  179, 220,
  179, 221,
  179, 228,
  179, 229,
  179, 230,
  179, 231,
  179, 232,
  179, 234,
  179, 239,
  179, 241,
  179, 244,
  179, 247,
  179, 250,
  179, 253,
  179, 254,
  179, 255,
  179, 258,
  179, 262,
  179, 263,
  179, 265,
  179, 267,
  179, 272,
  179, 275,
  179, 277,
  179, 278,
  179, 279,
  179, 282,
  179, 284,
  179, 288,
  179, 289,
  179, 290,
  179, 291,
  179, 294,
  179, 297,
  179, 298,
  179, 303,
  179, 304,
  179, 308,
  179, 309,
  179, 310,
  179, 313,
  179, 315,
  179, 316,
  179, 317,
  179, 323,
  179, 324,
  179, 325,
  179, 326,
  179, 328,
  179, 329,
  179, 330,
  179, 331,
  179, 333,
  179, 335,
  179, 337,
  179, 338,
  179, 339,
  179, 340,
  179, 341,
  179, 343,
  179, 344,
  179, 345,
  179, 346,
  179, 347,
  179, 349,
  179, 350,
  179, 352,
  179, 353,
  179, 354,
  179, 355,
  179, 356,
  179, 357,
  179, 359,
  179, 361,
  179, 363,
  179, 365,
  179, 366,
  179, 367,
  179, 369,
  179, 374,
  179, 375,
  179, 378,
  179, 379,
  179, 380,
  179, 383,
  179, 384,
  179, 385,
  179, 387,
  179, 388,
  179, 389,
  179, 391,
  179, 395,
  179, 396,
  179, 402,
  179, 404,
  179, 405,
  179, 407,
  179, 408,
  179, 409,
  179, 410,
  179, 416,
  179, 420,
  179, 421,
  179, 423,
  179, 424,
  179, 428,
  179, 429,
  179, 431,
  179, 432,
  179, 433,
  179, 435,
  179, 436,
  179, 439,
  179, 441,
  179, 442,
  179, 445,
  179, 446,
  179, 452,
  179, 454,
  179, 456,
  179, 457,
  179, 458,
  179, 459,
  179, 461,
  179, 462,
  179, 464,
  179, 465,
  179, 466,
  179, 468,
  179, 472,
  179, 474,
  179, 476,
  179, 481,
  179, 482,
  179, 483,
  179, 489,
  179, 491,
  179, 492,
  179, 493,
  179, 494,
  179, 496,
  179, 499,
  179, 500,
  180, 181,
  180, 182,
  180, 183,
  180, 184,
  180, 189,
  180, 192,
  180, 195,
  180, 196,
  180, 197,
  180, 198,
  180, 199,
  180, 202,
  180, 205,
  180, 206,
  180, 208,
  180, 209,
  180, 210,
  180, 211,
  180, 213,
  180, 216,
  180, 217,
  180, 220,
  180, 221,
  180, 224,
  180, 226,
  180, 227,
  180, 228,
  180, 229,
  180, 231,
  180, 232,
  180, 235,
  180, 236,
  180, 237,
  180, 240,
  180, 244,
  180, 245,
  180, 248,
  180, 252,
  180, 253,
  180, 255,
  180, 261,
  180, 262,
  180, 264,
  180, 265,
  180, 266,
  180, 267,
  180, 272,
  180, 274,
  180, 278,
  180, 281,
  180, 283,
  180, 285,
  180, 286,
  180, 287,
  180, 290,
  180, 291,
  180, 292,
  180, 294,
  180, 296,
  180, 298,
  180, 300,
  180, 303,
  180, 304,
  180, 307,
  180, 310,
  180, 311,
  180, 312,
  180, 314,
  180, 315,
  180, 316,
  180, 318,
  180, 319,
  180, 321,
  180, 322,
  180, 323,
  180, 326,
  180, 327,
  180, 330,
  180, 332,
  180, 336,
  180, 339,
  180, 340,
  180, 344,
  180, 345,
  180, 347,
  180, 348,
  180, 349,
  180, 350,
  180, 352,
  180, 354,
  180, 359,
  180, 362,
  180, 363,
  180, 365,
  180, 373,
  180, 377,
  180, 379,
  180, 381,
  180, 383,
  180, 385,
  180, 388,
  180, 389,
  180, 390,
  180, 393,
  180, 394,
  180, 398,
  180, 399,
  180, 401,
  180, 402,
  180, 405,
  180, 406,
  180, 407,
  180, 408,
  180, 409,
  180, 410,
  180, 411,
  180, 413,
  180, 420,
  180, 425,
  180, 426,
  180, 427,
  180, 428,
  180, 429,
  180, 430,
  180, 431,
  180, 433,
  180, 436,
  180, 437,
  180, 440,
  180, 442,
  180, 446,
  180, 447,
  180, 448,
  180, 449,
  180, 450,
  180, 451,
  180, 452,
  180, 453,
  180, 454,
  180, 457,
  180, 463,
  180, 464,
  180, 465,
  180, 468,
  180, 470,
  180, 472,
  180, 473,
  180, 476,
  180, 478,
  180, 479,
  180, 480,
  180, 482,
  180, 483,
  180, 485,
  180, 486,
  180, 493,
  180, 496,
  180, 497,
  180, 498,
  180, 499,
  180, 500,
  181, 183,
  181, 184,
  181, 187,
  181, 190,
  181, 191,
  181, 192,
  181, 196,
  181, 198,
  181, 200,
  181, 202,
  181, 203,
  181, 207,
  181, 208,
  181, 212,
  181, 213,
  181, 214,
  181, 216,
  181, 217,
  181, 218,
  181, 219,
  181, 221,
  181, 222,
  181, 223,
  181, 224,
  181, 225,
  181, 226,
  181, 229,
  181, 230,
  181, 231,
  181, 233,
  181, 235,
  181, 236,
  181, 237,
  181, 238,
  181, 241,
  181, 242,
  181, 243,
  181, 246,
  181, 247,
  181, 250,
  181, 252,
  181, 256,
  181, 257,
  181, 262,
  181, 263,
  181, 264,
  181, 265,
  181, 266,
  181, 267,
  181, 268,
  181, 270,
  181, 273,
  181, 274,
  181, 278,
  181, 280,
  181, 281,
  181, 282,
  181, 285,
  181, 289,
  181, 290,
  181, 291,
  181, 294,
  181, 296,
  181, 297,
  181, 298,
  181, 299,
  181, 300,
  181, 301,
  181, 303,
  181, 304,
  181, 306,
  181, 312,
  181, 315,
  181, 316,
  181, 320,
  181, 323,
  181, 326,
  181, 327,
  181, 330,
  181, 331,
  181, 333,
  181, 337,
  181, 341,
  181, 343,
  181, 348,
  181, 351,
  181, 352,
  181, 354,
  181, 358,
  181, 361,
  181, 366,
  181, 370,
  181, 376,
  181, 377,
  181, 378,
  181, 379,
  181, 380,
  181, 382,
  181, 386,
  181, 389,
  181, 393,
  181, 394,
  181, 401,
  181, 402,
  181, 404,
  181, 407,
  181, 408,
  181, 409,
  181, 412,
  181, 413,
  181, 414,
  181, 415,
  181, 418,
  181, 422,
  181, 423,
  181, 424,
  181, 425,
  181, 427,
  181, 428,
  181, 430,
  181, 431,
  181, 432,
  181, 433,
  181, 434,
  181, 435,
  181, 436,
  181, 439,
  181, 440,
  181, 447,
  181, 450,
  181, 452,
  181, 453,
  181, 454,
  181, 456,
  181, 458,
  181, 459,
  181, 460,
  181, 465,
  181, 466,
  181, 471,
  181, 473,
  181, 475,
  181, 476,
  181, 478,
  181, 479,
  181, 480,
  181, 481,
  181, 484,
  181, 485,
  181, 486,
  181, 492,
  181, 493,
  181, 498,
  181, 500,
  182, 187,
  182, 188,
  182, 191,
  182, 192,
  182, 195,
  182, 196,
  182, 197,
  182, 198,
  182, 200,
  182, 201,
  182, 202,
  182, 203,
  182, 204,
  182, 206,
  182, 209,
  182, 210,
  182, 211,
  182, 212,
  182, 214,
  182, 216,
  182, 220,
  182, 221,
  182, 224,
  182, 225,
  182, 227,
  182, 228,
  182, 230,
  182, 231,
  182, 233,
  182, 234,
  182, 236,
  182, 239,
  182, 240,
  182, 241,
  182, 245,
  182, 246,
  182, 247,
  182, 248,
  182, 250,
  182, 252,
  182, 257,
  182, 261,
  182, 262,
  182, 272,
  182, 273,
  182, 275,
  182, 277,
  182, 281,
  182, 282,
  182, 286,
  182, 288,
  182, 290,
  182, 291,
  182, 296,
  182, 297,
  182, 298,
  182, 299,
  182, 301,
  182, 303,
  182, 309,
  182, 310,
  182, 311,
  182, 312,
  182, 313,
  182, 317,
  182, 319,
  182, 320,
  182, 321,
  182, 322,
  182, 324,
  182, 326,
  182, 327,
  182, 328,
  182, 329,
  182, 330,
  182, 332,
  182, 333,
  182, 335,
  182, 338,
  182, 339,
  182, 341,
  182, 343,
  182, 350,
  182, 351,
  182, 352,
  182, 354,
  182, 358,
  182, 359,
  182, 360,
  182, 361,
  182, 362,
  182, 363,
  182, 364,
  182, 368,
  182, 369,
  182, 370,
  182, 371,
  182, 372,
  182, 378,
  182, 379,
  182, 380,
  182, 382,
  182, 383,
  182, 386,
  182, 387,
  182, 389,
  182, 390,
  182, 392,
  182, 395,
  182, 396,
  182, 397,
  182, 398,
  182, 408,
  182, 410,
  182, 411,
  182, 413,
  182, 414,
  182, 417,
  182, 420,
  182, 421,
  182, 422,
  182, 423,
  182, 424,
  182, 425,
  182, 426,
  182, 430,
  182, 431,
  182, 432,
  182, 434,
  182, 435,
  182, 436,
  182, 438,
  182, 439,
  182, 443,
  182, 444,
  182, 445,
  182, 446,
  182, 448,
  182, 449,
  182, 450,
  182, 452,
  182, 454,
  182, 461,
  182, 462,
  182, 463,
  182, 464,
  182, 465,
  182, 467,
  182, 470,
  182, 472,
  182, 475,
  182, 476,
  182, 478,
  182, 479,
  182, 482,
  182, 483,
  182, 484,
  182, 486,
  182, 488,
  182, 489,
  182, 490,
  182, 492,
  182, 493,
  182, 494,
  182, 496,
  182, 498,
  182, 499,
  183, 188,
  183, 189,
  183, 190,
  183, 195,
  183, 197,
  183, 198,
  183, 203,
  183, 204,
  183, 209,
  183, 210,
  183, 211,
  183, 217,
  183, 218,
  183, 219,
  183, 220,
  183, 223,
  183, 225,
  183, 226,
  183, 230,
  183, 231,
  183, 232,
  183, 234,
  183, 236,
  183, 238,
  183, 240,
  183, 241,
  183, 244,
  183, 247,
  183, 248,
  183, 249,
  183, 251,
  183, 253,
  183, 254,
  183, 255,
  183, 257,
  183, 258,
  183, 260,
  183, 261,
  183, 266,
  183, 267,
  183, 270,
  183, 271,
  183, 273,
  183, 276,
  183, 277,
  183, 278,
  183, 280,
  183, 281,
  183, 285,
  183, 290,
  183, 293,
  183, 294,
  183, 295,
  183, 297,
  183, 298,
  183, 301,
  183, 305,
  183, 306,
  183, 308,
  183, 311,
  183, 312,
  183, 313,
  183, 315,
  183, 317,
  183, 321,
  183, 322,
  183, 323,
  183, 325,
  183, 329,
  183, 332,
  183, 333,
  183, 334,
  183, 338,
  183, 341,
  183, 343,
  183, 345,
  183, 347,
  183, 348,
  183, 354,
  183, 355,
  183, 356,
  183, 358,
  183, 360,
  183, 362,
  183, 365,
  183, 370,
  183, 371,
  183, 372,
  183, 374,
  183, 377,
  183, 378,
  183, 382,
  183, 386,
  183, 389,
  183, 390,
  183, 391,
  183, 392,
  183, 394,
  183, 396,
  183, 397,
  183, 398,
  183, 400,
  183, 402,
  183, 403,
  183, 404,
  183, 405,
  183, 407,
  183, 410,
  183, 411,
  183, 412,
  183, 414,
  183, 415,
  183, 416,
  183, 417,
  183, 420,
  183, 427,
  183, 428,
  183, 430,
  183, 431,
  183, 432,
  183, 433,
  183, 434,
  183, 437,
  183, 438,
  183, 439,
  183, 441,
  183, 442,
  183, 444,
  183, 445,
  183, 446,
  183, 447,
  183, 449,
  183, 450,
  183, 454,
  183, 461,
  183, 466,
  183, 474,
  183, 478,
  183, 481,
  183, 482,
  183, 483,
  183, 484,
  183, 487,
  183, 488,
  183, 491,
  183, 493,
  183, 495,
  184, 188,
  184, 189,
  184, 190,
  184, 191,
  184, 194,
  184, 198,
  184, 199,
  184, 201,
  184, 205,
  184, 206,
  184, 211,
  184, 212,
  184, 214,
  184, 215,
  184, 217,
  184, 220,
  184, 221,
  184, 222,
  184, 223,
  184, 227,
  184, 228,
  184, 231,
  184, 233,
  184, 241,
  184, 242,
  184, 243,
  184, 247,
  184, 248,
  184, 249,
  184, 250,
  184, 251,
  184, 253,
  184, 256,
  184, 258,
  184, 263,
  184, 269,
  184, 270,
  184, 271,
  184, 272,
  184, 274,
  184, 276,
  184, 284,
  184, 286,
  184, 287,
  184, 290,
  184, 293,
  184, 295,
  184, 298,
  184, 299,
  184, 300,
  184, 304,
  184, 308,
  184, 309,
  184, 311,
  184, 312,
  184, 316,
  184, 318,
  184, 319,
  184, 322,
  184, 325,
  184, 326,
  184, 330,
  184, 335,
  184, 336,
  184, 339,
  184, 340,
  184, 341,
  184, 343,
  184, 345,
  184, 350,
  184, 356,
  184, 361,
  184, 362,
  184, 363,
  184, 364,
  184, 365,
  184, 367,
  184, 370,
  184, 371,
  184, 372,
  184, 374,
  184, 375,
  184, 377,
  184, 378,
  184, 382,
  184, 383,
  184, 385,
  184, 386,
  184, 388,
  184, 390,
  184, 397,
  184, 401,
  184, 402,
  184, 403,
  184, 408,
  184, 411,
  184, 412,
  184, 414,
  184, 415,
  184, 416,
  184, 420,
  184, 421,
  184, 422,
  184, 423,
  184, 424,
  184, 428,
  184, 433,
  184, 434,
  184, 436,
  184, 437,
  184, 438,
  184, 440,
  184, 442,
  184, 443,
  184, 445,
  184, 446,
  184, 448,
  184, 449,
  184, 450,
  184, 457,
  184, 460,
  184, 461,
  184, 464,
  184, 467,
  184, 468,
  184, 469,
  184, 472,
  184, 473,
  184, 475,
  184, 476,
  184, 478,
  184, 480,
  184, 481,
  184, 485,
  184, 486,
  184, 488,
  184, 489,
  184, 491,
  184, 492,
  184, 494,
  184, 499,
  185, 190,
  185, 191,
  185, 192,
  185, 193,
  185, 194,
  185, 195,
  185, 200,
  185, 201,
  185, 202,
  185, 203,
  185, 206,
  185, 208,
  185, 210,
  185, 214,
  185, 215,
  185, 216,
  185, 217,
  185, 221,
  185, 223,
  185, 229,
  185, 230,
  185, 231,
  185, 232,
  185, 235,
  185, 239,
  185, 240,
  185, 241,
  185, 242,
  185, 243,
  185, 244,
  185, 248,
  185, 255,
  185, 264,
  185, 265,
  185, 269,
  185, 270,
  185, 272,
  185, 273,
  185, 277,
  185, 278,
  185, 279,
  185, 280,
  185, 283,
  185, 284,
  185, 286,
  185, 287,
  185, 288,
  185, 291,
  185, 293,
  185, 294,
  185, 296,
  185, 297,
  185, 301,
  185, 302,
  185, 305,
  185, 306,
  185, 311,
  185, 312,
  185, 313,
  185, 314,
  185, 317,
  185, 319,
  185, 320,
  185, 323,
  185, 324,
  185, 327,
  185, 329,
  185, 333,
  185, 334,
  185, 338,
  185, 347,
  185, 349,
  185, 351,
  185, 355,
  185, 356,
  185, 358,
  185, 361,
  185, 362,
  185, 363,
  185, 364,
  185, 367,
  185, 371,
  185, 374,
  185, 377,
  185, 378,
  185, 379,
  185, 380,
  185, 381,
  185, 382,
  185, 384,
  185, 385,
  185, 387,
  185, 388,
  185, 389,
  185, 392,
  185, 393,
  185, 395,
  185, 397,
  185, 398,
  185, 401,
  185, 402,
  185, 403,
  185, 404,
  185, 405,
  185, 406,
  185, 407,
  185, 408,
  185, 409,
  185, 411,
  185, 412,
  185, 415,
  185, 418,
  185, 419,
  185, 423,
  185, 424,
  185, 425,
  185, 426,
  185, 428,
  185, 430,
  185, 431,
  185, 433,
  185, 434,
  185, 435,
  185, 436,
  185, 437,
  185, 438,
  185, 444,
  185, 445,
  185, 450,
  185, 453,
  185, 454,
  185, 455,
  185, 456,
  185, 457,
  185, 459,
  185, 461,
  185, 462,
  185, 465,
  185, 466,
  185, 468,
  185, 470,
  185, 471,
  185, 474,
  185, 477,
  185, 479,
  185, 482,
  185, 486,
  185, 487,
  185, 491,
  185, 495,
  185, 496,
  185, 497,
  186, 187,
  186, 193,
  186, 196,
  186, 197,
  186, 206,
  186, 207,
  186, 213,
  186, 214,
  186, 215,
  186, 220,
  186, 221,
  186, 222,
  186, 223,
  186, 224,
  186, 225,
  186, 226,
  186, 229,
  186, 230,
  186, 231,
  186, 234,
  186, 236,
  186, 237,
  186, 239,
  186, 242,
  186, 243,
  186, 247,
  186, 248,
  186, 249,
  186, 251,
  186, 252,
  186, 256,
  186, 257,
  186, 260,
  186, 264,
  186, 265,
  186, 266,
  186, 267,
  186, 270,
  186, 271,
  186, 273,
  186, 274,
  186, 276,
  186, 277,
  186, 278,
  186, 281,
  186, 283,
  186, 284,
  186, 285,
  186, 287,
  186, 289,
  186, 290,
  186, 295,
  186, 296,
  186, 300,
  186, 301,
  186, 304,
  186, 305,
  186, 306,
  186, 309,
  186, 312,
  186, 313,
  186, 314,
  186, 317,
  186, 321,
  186, 324,
  186, 325,
  186, 328,
  186, 329,
  186, 332,
  186, 335,
  186, 336,
  186, 342,
  186, 343,
  186, 345,
  186, 346,
  186, 353,
  186, 355,
  186, 357,
  186, 359,
  186, 360,
  186, 363,
  186, 365,
  186, 366,
  186, 367,
  186, 368,
  186, 369,
  186, 373,
  186, 374,
  186, 377,
  186, 380,
  186, 381,
  186, 382,
  186, 383,
  186, 387,
  186, 390,
  186, 394,
  186, 397,
  186, 398,
  186, 400,
  186, 404,
  186, 405,
  186, 407,
  186, 408,
  186, 412,
  186, 413,
  186, 414,
  186, 415,
  186, 420,
  186, 421,
  186, 422,
  186, 424,
  186, 425,
  186, 426,
  186, 427,
  186, 428,
  186, 432,
  186, 434,
  186, 436,
  186, 437,
  186, 439,
  186, 440,
  186, 443,
  186, 446,
  186, 450,
  186, 453,
  186, 455,
  186, 458,
  186, 459,
  186, 460,
  186, 461,
  186, 462,
  186, 463,
  186, 464,
  186, 467,
  186, 470,
  186, 471,
  186, 473,
  186, 474,
  186, 479,
  186, 483,
  186, 484,
  186, 485,
  186, 487,
  186, 491,
  186, 493,
  186, 494,
  186, 495,
  186, 497,
  186, 498,
  186, 500,
  187, 188,
  187, 192,
  187, 196,
  187, 200,
  187, 201,
  187, 202,
  187, 203,
  187, 206,
  187, 208,
  187, 209,
  187, 211,
  187, 212,
  187, 213,
  187, 214,
  187, 217,
  187, 224,
  187, 228,
  187, 229,
  187, 230,
  187, 231,
  187, 233,
  187, 235,
  187, 236,
  187, 237,
  187, 238,
  187, 245,
  187, 246,
  187, 248,
  187, 253,
  187, 255,
  187, 256,
  187, 257,
  187, 258,
  187, 260,
  187, 262,
  187, 263,
  187, 267,
  187, 268,
  187, 269,
  187, 270,
  187, 272,
  187, 273,
  187, 275,
  187, 276,
  187, 277,
  187, 280,
  187, 283,
  187, 285,
  187, 286,
  187, 287,
  187, 290,
  187, 291,
  187, 294,
  187, 296,
  187, 298,
  187, 299,
  187, 301,
  187, 303,
  187, 304,
  187, 305,
  187, 307,
  187, 308,
  187, 310,
  187, 313,
  187, 314,
  187, 316,
  187, 318,
  187, 319,
  187, 320,
  187, 322,
  187, 324,
  187, 325,
  187, 326,
  187, 327,
  187, 329,
  187, 330,
  187, 331,
  187, 332,
  187, 333,
  187, 338,
  187, 340,
  187, 341,
  187, 342,
  187, 343,
  187, 347,
  187, 348,
  187, 354,
  187, 355,
  187, 356,
  187, 357,
  187, 358,
  187, 359,
  187, 361,
  187, 362,
  187, 364,
  187, 366,
  187, 367,
  187, 368,
  187, 371,
  187, 375,
  187, 381,
  187, 383,
  187, 384,
  187, 389,
  187, 395,
  187, 397,
  187, 399,
  187, 400,
  187, 402,
  187, 404,
  187, 406,
  187, 407,
  187, 409,
  187, 412,
  187, 414,
  187, 415,
  187, 416,
  187, 419,
  187, 420,
  187, 425,
  187, 427,
  187, 428,
  187, 430,
  187, 433,
  187, 434,
  187, 435,
  187, 437,
  187, 438,
  187, 440,
  187, 441,
  187, 445,
  187, 450,
  187, 454,
  187, 455,
  187, 458,
  187, 460,
  187, 462,
  187, 463,
  187, 466,
  187, 467,
  187, 468,
  187, 470,
  187, 472,
  187, 476,
  187, 480,
  187, 482,
  187, 483,
  187, 484,
  187, 486,
  187, 490,
  187, 491,
  187, 494,
  187, 495,
  187, 496,
  187, 498,
  187, 499,
  188, 190,
  188, 191,
  188, 192,
  188, 194,
  188, 197,
  188, 198,
  188, 199,
  188, 202,
  188, 203,
  188, 205,
  188, 206,
  188, 207,
  188, 210,
  188, 213,
  188, 214,
  188, 219,
  188, 221,
  188, 222,
  188, 227,
  188, 229,
  188, 231,
  188, 232,
  188, 234,
  188, 239,
  188, 240,
  188, 245,
  188, 246,
  188, 251,
  188, 252,
  188, 253,
  188, 255,
  188, 256,
  188, 258,
  188, 260,
  188, 261,
  188, 262,
  188, 264,
  188, 266,
  188, 272,
  188, 273,
  188, 276,
  188, 277,
  188, 279,
  188, 280,
  188, 281,
  188, 290,
  188, 294,
  188, 297,
  188, 299,
  188, 303,
  188, 306,
  188, 307,
  188, 309,
  188, 310,
  188, 311,
  188, 312,
  188, 313,
  188, 316,
  188, 318,
  188, 320,
  188, 323,
  188, 329,
  188, 330,
  188, 333,
  188, 336,
  188, 337,
  188, 338,
  188, 341,
  188, 342,
  188, 343,
  188, 344,
  188, 345,
  188, 347,
  188, 348,
  188, 352,
  188, 353,
  188, 354,
  188, 356,
  188, 358,
  188, 359,
  188, 361,
  188, 363,
  188, 364,
  188, 365,
  188, 368,
  188, 370,
  188, 371,
  188, 373,
  188, 375,
  188, 376,
  188, 380,
  188, 383,
  188, 384,
  188, 385,
  188, 389,
  188, 391,
  188, 392,
  188, 393,
  188, 396,
  188, 397,
  188, 399,
  188, 400,
  188, 402,
  188, 403,
  188, 404,
  188, 405,
  188, 412,
  188, 413,
  188, 416,
  188, 417,
  188, 418,
  188, 419,
  188, 421,
  188, 422,
  188, 424,
  188, 427,
  188, 428,
  188, 429,
  188, 430,
  188, 431,
  188, 432,
  188, 434,
  188, 435,
  188, 439,
  188, 440,
  188, 444,
  188, 446,
  188, 449,
  188, 454,
  188, 460,
  188, 463,
  188, 465,
  188, 466,
  188, 467,
  188, 468,
  188, 469,
  188, 470,
  188, 472,
  188, 473,
  188, 474,
  188, 475,
  188, 476,
  188, 477,
  188, 478,
  188, 479,
  188, 482,
  188, 483,
  188, 484,
  188, 485,
  188, 488,
  188, 491,
  188, 492,
  188, 493,
  188, 494,
  188, 496,
  188, 498,
  188, 499,
  189, 190,
  189, 191,
  189, 192,
  189, 193,
  189, 199,
  189, 200,
  189, 202,
  189, 203,
  189, 204,
  189, 205,
  189, 207,
  189, 208,
  189, 211,
  189, 212,
  189, 213,
  189, 214,
  189, 215,
  189, 217,
  189, 218,
  189, 219,
  189, 220,
  189, 221,
  189, 222,
  189, 225,
  189, 227,
  189, 230,
  189, 231,
  189, 233,
  189, 234,
  189, 236,
  189, 237,
  189, 238,
  189, 240,
  189, 241,
  189, 243,
  189, 244,
  189, 245,
  189, 247,
  189, 248,
  189, 249,
  189, 250,
  189, 252,
  189, 254,
  189, 255,
  189, 256,
  189, 257,
  189, 259,
  189, 262,
  189, 264,
  189, 265,
  189, 267,
  189, 270,
  189, 273,
  189, 274,
  189, 277,
  189, 278,
  189, 280,
  189, 281,
  189, 283,
  189, 284,
  189, 285,
  189, 288,
  189, 291,
  189, 297,
  189, 298,
  189, 299,
  189, 302,
  189, 303,
  189, 305,
  189, 306,
  189, 307,
  189, 310,
  189, 313,
  189, 314,
  189, 315,
  189, 317,
  189, 319,
  189, 322,
  189, 323,
  189, 325,
  189, 328,
  189, 330,
  189, 331,
  189, 332,
  189, 334,
  189, 335,
  189, 342,
  189, 343,
  189, 347,
  189, 348,
  189, 349,
  189, 354,
  189, 355,
  189, 359,
  189, 360,
  189, 361,
  189, 362,
  189, 363,
  189, 366,
  189, 367,
  189, 368,
  189, 373,
  189, 376,
  189, 378,
  189, 379,
  189, 381,
  189, 385,
  189, 386,
  189, 388,
  189, 389,
  189, 390,
  189, 391,
  189, 394,
  189, 396,
  189, 397,
  189, 399,
  189, 406,
  189, 411,
  189, 412,
  189, 413,
  189, 414,
  189, 419,
  189, 420,
  189, 422,
  189, 423,
  189, 424,
  189, 425,
  189, 429,
  189, 432,
  189, 433,
  189, 434,
  189, 435,
  189, 437,
  189, 438,
  189, 439,
  189, 442,
  189, 444,
  189, 445,
  189, 453,
  189, 454,
  189, 457,
  189, 459,
  189, 460,
  189, 461,
  189, 462,
  189, 464,
  189, 469,
  189, 470,
  189, 473,
  189, 474,
  189, 475,
  189, 477,
  189, 478,
  189, 481,
  189, 482,
  189, 486,
  189, 490,
  189, 491,
  189, 494,
  189, 496,
  189, 497,
  190, 191,
  190, 192,
  190, 193,
  190, 204,
  190, 206,
  190, 209,
  190, 210,
  190, 214,
  190, 215,
  190, 217,
  190, 218,
  190, 220,
  190, 221,
  190, 223,
  190, 227,
  190, 228,
  190, 232,
  190, 233,
  190, 238,
  190, 241,
  190, 244,
  190, 245,
  190, 249,
  190, 250,
  190, 252,
  190, 253,
  190, 254,
  190, 255,
  190, 256,
  190, 258,
  190, 261,
  190, 262,
  190, 265,
  190, 269,
  190, 271,
  190, 274,
  190, 276,
  190, 278,
  190, 279,
  190, 281,
  190, 287,
  190, 288,
  190, 289,
  190, 292,
  190, 293,
  190, 296,
  190, 297,
  190, 299,
  190, 303,
  190, 304,
  190, 305,
  190, 306,
  190, 307,
  190, 310,
  190, 314,
  190, 315,
  190, 320,
  190, 324,
  190, 326,
  190, 327,
  190, 330,
  190, 331,
  190, 332,
  190, 333,
  190, 336,
  190, 338,
  190, 340,
  190, 341,
  190, 342,
  190, 344,
  190, 345,
  190, 347,
  190, 352,
  190, 354,
  190, 355,
  190, 361,
  190, 364,
  190, 365,
  190, 369,
  190, 370,
  190, 373,
  190, 374,
  190, 378,
  190, 379,
  190, 381,
  190, 382,
  190, 384,
  190, 386,
  190, 387,
  190, 391,
  190, 394,
  190, 395,
  190, 397,
  190, 398,
  190, 399,
  190, 401,
  190, 402,
  190, 405,
  190, 406,
  190, 407,
  190, 408,
  190, 409,
  190, 410,
  190, 411,
  190, 412,
  190, 415,
  190, 416,
  190, 417,
  190, 418,
  190, 420,
  190, 423,
  190, 424,
  190, 426,
  190, 428,
  190, 431,
  190, 432,
  190, 434,
  190, 436,
  190, 440,
  190, 441,
  190, 442,
  190, 443,
  190, 445,
  190, 446,
  190, 447,
  190, 448,
  190, 449,
  190, 450,
  190, 451,
  190, 452,
  190, 455,
  190, 458,
  190, 459,
  190, 460,
  190, 463,
  190, 464,
  190, 465,
  190, 466,
  190, 467,
  190, 468,
  190, 469,
  190, 472,
  190, 474,
  190, 477,
  190, 479,
  190, 480,
  190, 482,
  190, 483,
  190, 484,
  190, 487,
  190, 488,
  190, 489,
  190, 492,
  190, 493,
  190, 494,
  190, 495,
  190, 496,
  190, 497,
  190, 498,
  190, 500,
  191, 193,
  191, 195,
  191, 197,
  191, 199,
  191, 200,
  191, 201,
  191, 204,
  191, 205,
  191, 206,
  191, 207,
  191, 211,
  191, 212,
  191, 213,
  191, 215,
  191, 217,
  191, 223,
  191, 225,
  191, 228,
  191, 233,
  191, 234,
  191, 237,
  191, 240,
  191, 242,
  191, 243,
  191, 245,
  191, 246,
  191, 247,
  191, 249,
  191, 250,
  191, 253,
  191, 254,
  191, 255,
  191, 258,
  191, 262,
  191, 263,
  191, 264,
  191, 269,
  191, 274,
  191, 276,
  191, 281,
  191, 282,
  191, 283,
  191, 286,
  191, 291,
  191, 292,
  191, 293,
  191, 295,
  191, 296,
  191, 297,
  191, 299,
  191, 300,
  191, 303,
  191, 305,
  191, 307,
  191, 308,
  191, 310,
  191, 315,
  191, 316,
  191, 318,
  191, 321,
  191, 325,
  191, 326,
  191, 328,
  191, 329,
  191, 332,
  191, 337,
  191, 339,
  191, 341,
  191, 345,
  191, 348,
  191, 349,
  191, 351,
  191, 353,
  191, 355,
  191, 356,
  191, 359,
  191, 360,
  191, 362,
  191, 363,
  191, 364,
  191, 365,
  191, 367,
  191, 369,
  191, 372,
  191, 374,
  191, 375,
  191, 378,
  191, 379,
  191, 381,
  191, 382,
  191, 383,
  191, 385,
  191, 387,
  191, 388,
  191, 392,
  191, 393,
  191, 394,
  191, 399,
  191, 400,
  191, 402,
  191, 403,
  191, 405,
  191, 407,
  191, 408,
  191, 409,
  191, 410,
  191, 413,
  191, 416,
  191, 417,
  191, 418,
  191, 419,
  191, 420,
  191, 421,
  191, 422,
  191, 426,
  191, 427,
  191, 428,
  191, 432,
  191, 433,
  191, 434,
  191, 435,
  191, 436,
  191, 439,
  191, 443,
  191, 445,
  191, 446,
  191, 449,
  191, 454,
  191, 455,
  191, 459,
  191, 462,
  191, 463,
  191, 464,
  191, 465,
  191, 466,
  191, 468,
  191, 469,
  191, 471,
  191, 472,
  191, 477,
  191, 479,
  191, 480,
  191, 482,
  191, 483,
  191, 485,
  191, 486,
  191, 487,
  191, 490,
  191, 493,
  191, 494,
  191, 495,
  191, 497,
  192, 193,
  192, 194,
  192, 195,
  192, 198,
  192, 199,
  192, 200,
  192, 201,
  192, 210,
  192, 212,
  192, 214,
  192, 215,
  192, 216,
  192, 217,
  192, 220,
  192, 221,
  192, 222,
  192, 224,
  192, 225,
  192, 229,
  192, 231,
  192, 234,
  192, 240,
  192, 242,
  192, 243,
  192, 245,
  192, 251,
  192, 252,
  192, 253,
  192, 254,
  192, 257,
  192, 258,
  192, 262,
  192, 263,
  192, 264,
  192, 269,
  192, 270,
  192, 271,
  192, 276,
  192, 277,
  192, 278,
  192, 280,
  192, 281,
  192, 283,
  192, 287,
  192, 290,
  192, 294,
  192, 297,
  192, 298,
  192, 300,
  192, 301,
  192, 305,
  192, 308,
  192, 309,
  192, 310,
  192, 315,
  192, 316,
  192, 319,
  192, 322,
  192, 323,
  192, 324,
  192, 325,
  192, 326,
  192, 330,
  192, 333,
  192, 335,
  192, 336,
  192, 337,
  192, 338,
  192, 339,
  192, 340,
  192, 343,
  192, 344,
  192, 346,
  192, 347,
  192, 350,
  192, 352,
  192, 354,
  192, 355,
  192, 356,
  192, 358,
  192, 360,
  192, 361,
  192, 362,
  192, 363,
  192, 364,
  192, 365,
  192, 372,
  192, 374,
  192, 377,
  192, 378,
  192, 380,
  192, 382,
  192, 385,
  192, 386,
  192, 387,
  192, 388,
  192, 389,
  192, 390,
  192, 391,
  192, 392,
  192, 394,
  192, 398,
  192, 399,
  192, 405,
  192, 410,
  192, 412,
  192, 415,
  192, 416,
  192, 420,
  192, 421,
  192, 426,
  192, 428,
  192, 429,
  192, 431,
  192, 434,
  192, 437,
  192, 438,
  192, 441,
  192, 443,
  192, 445,
  192, 448,
  192, 454,
  192, 455,
  192, 457,
  192, 458,
  192, 459,
  192, 462,
  192, 463,
  192, 464,
  192, 465,
  192, 466,
  192, 467,
  192, 470,
  192, 472,
  192, 473,
  192, 475,
  192, 479,
  192, 481,
  192, 484,
  192, 485,
  192, 488,
  192, 489,
  192, 490,
  192, 492,
  192, 493,
  192, 494,
  192, 495,
  192, 500,
  193, 195,
  193, 198,
  193, 200,
  193, 201,
  193, 202,
  193, 204,
  193, 205,
  193, 209,
  193, 210,
  193, 211,
  193, 212,
  193, 213,
  193, 214,
  193, 215,
  193, 216,
  193, 217,
  193, 218,
  193, 219,
  193, 221,
  193, 224,
  193, 226,
  193, 227,
  193, 230,
  193, 231,
  193, 233,
  193, 237,
  193, 238,
  193, 240,
  193, 241,
  193, 247,
  193, 249,
  193, 250,
  193, 251,
  193, 259,
  193, 260,
  193, 262,
  193, 263,
  193, 264,
  193, 265,
  193, 267,
  193, 270,
  193, 275,
  193, 276,
  193, 277,
  193, 278,
  193, 283,
  193, 285,
  193, 287,
  193, 290,
  193, 292,
  193, 293,
  193, 297,
  193, 298,
  193, 300,
  193, 302,
  193, 305,
  193, 306,
  193, 307,
  193, 312,
  193, 313,
  193, 315,
  193, 318,
  193, 323,
  193, 324,
  193, 325,
  193, 326,
  193, 331,
  193, 334,
  193, 335,
  193, 336,
  193, 337,
  193, 339,
  193, 340,
  193, 341,
  193, 342,
  193, 343,
  193, 346,
  193, 347,
  193, 350,
  193, 355,
  193, 356,
  193, 359,
  193, 361,
  193, 362,
  193, 363,
  193, 365,
  193, 366,
  193, 368,
  193, 370,
  193, 372,
  193, 373,
  193, 374,
  193, 377,
  193, 378,
  193, 379,
  193, 382,
  193, 383,
  193, 384,
  193, 385,
  193, 386,
  193, 387,
  193, 389,
  193, 390,
  193, 391,
  193, 392,
  193, 395,
  193, 399,
  193, 401,
  193, 404,
  193, 406,
  193, 409,
  193, 416,
  193, 418,
  193, 420,
  193, 427,
  193, 429,
  193, 432,
  193, 433,
  193, 435,
  193, 436,
  193, 437,
  193, 438,
  193, 439,
  193, 441,
  193, 443,
  193, 445,
  193, 446,
  193, 448,
  193, 449,
  193, 450,
  193, 452,
  193, 453,
  193, 456,
  193, 457,
  193, 459,
  193, 462,
  193, 464,
  193, 465,
  193, 467,
  193, 470,
  193, 474,
  193, 475,
  193, 476,
  193, 478,
  193, 479,
  193, 483,
  193, 484,
  193, 487,
  193, 488,
  193, 489,
  193, 490,
  193, 491,
  193, 492,
  193, 493,
  193, 494,
  193, 495,
  193, 496,
  193, 498,
  193, 499,
  193, 500,
  194, 196,
  194, 199,
  194, 203,
  194, 204,
  194, 206,
  194, 207,
  194, 208,
  194, 210,
  194, 211,
  194, 213,
  194, 216,
  194, 217,
  194, 218,
  194, 219,
  194, 220,
  194, 221,
  194, 223,
  194, 224,
  194, 225,
  194, 226,
  194, 228,
  194, 229,
  194, 230,
  194, 231,
  194, 233,
  194, 239,
  194, 240,
  194, 242,
  194, 243,
  194, 245,
  194, 247,
  194, 248,
  194, 249,
  194, 251,
  194, 252,
  194, 253,
  194, 254,
  194, 257,
  194, 259,
  194, 260,
  194, 261,
  194, 262,
  194, 263,
  194, 264,
  194, 265,
  194, 266,
  194, 267,
  194, 268,
  194, 273,
  194, 277,
  194, 283,
  194, 284,
  194, 288,
  194, 290,
  194, 291,
  194, 292,
  194, 295,
  194, 296,
  194, 297,
  194, 299,
  194, 302,
  194, 303,
  194, 304,
  194, 306,
  194, 307,
  194, 308,
  194, 310,
  194, 311,
  194, 315,
  194, 316,
  194, 317,
  194, 320,
  194, 322,
  194, 325,
  194, 328,
  194, 330,
  194, 335,
  194, 337,
  194, 338,
  194, 340,
  194, 342,
  194, 343,
  194, 345,
  194, 346,
  194, 348,
  194, 349,
  194, 351,
  194, 352,
  194, 354,
  194, 355,
  194, 357,
  194, 358,
  194, 359,
  194, 360,
  194, 362,
  194, 363,
  194, 364,
  194, 369,
  194, 370,
  194, 372,
  194, 374,
  194, 375,
  194, 376,
  194, 377,
  194, 379,
  194, 380,
  194, 381,
  194, 384,
  194, 385,
  194, 389,
  194, 392,
  194, 393,
  194, 397,
  194, 398,
  194, 400,
  194, 402,
  194, 404,
  194, 406,
  194, 407,
  194, 408,
  194, 409,
  194, 411,
  194, 413,
  194, 414,
  194, 415,
  194, 417,
  194, 420,
  194, 422,
  194, 424,
  194, 426,
  194, 429,
  194, 431,
  194, 433,
  194, 437,
  194, 439,
  194, 440,
  194, 441,
  194, 442,
  194, 446,
  194, 447,
  194, 449,
  194, 451,
  194, 452,
  194, 453,
  194, 458,
  194, 459,
  194, 461,
  194, 465,
  194, 467,
  194, 469,
  194, 470,
  194, 471,
  194, 474,
  194, 475,
  194, 479,
  194, 482,
  194, 483,
  194, 484,
  194, 487,
  194, 492,
  194, 493,
  194, 494,
  194, 495,
  194, 497,
  194, 498,
  194, 500,
  195, 199,
  195, 200,
  195, 202,
  195, 204,
  195, 205,
  195, 206,
  195, 207,
  195, 208,
  195, 210,
  195, 215,
  195, 218,
  195, 219,
  195, 220,
  195, 221,
  195, 223,
  195, 224,
  195, 227,
  195, 228,
  195, 232,
  195, 233,
  195, 235,
  195, 240,
  195, 241,
  195, 242,
  195, 243,
  195, 244,
  195, 245,
  195, 246,
  195, 247,
  195, 248,
  195, 249,
  195, 250,
  195, 251,
  195, 252,
  195, 253,
  195, 255,
  195, 258,
  195, 263,
  195, 264,
  195, 265,
  195, 268,
  195, 270,
  195, 271,
  195, 275,
  195, 277,
  195, 282,
  195, 283,
  195, 287,
  195, 288,
  195, 289,
  195, 290,
  195, 294,
  195, 296,
  195, 297,
  195, 298,
  195, 299,
  195, 300,
  195, 303,
  195, 305,
  195, 306,
  195, 307,
  195, 309,
  195, 310,
  195, 311,
  195, 313,
  195, 315,
  195, 318,
  195, 321,
  195, 322,
  195, 327,
  195, 328,
  195, 330,
  195, 331,
  195, 336,
  195, 339,
  195, 340,
  195, 341,
  195, 342,
  195, 343,
  195, 345,
  195, 347,
  195, 350,
  195, 356,
  195, 358,
  195, 360,
  195, 361,
  195, 363,
  195, 366,
  195, 367,
  195, 369,
  195, 370,
  195, 371,
  195, 373,
  195, 376,
  195, 377,
  195, 379,
  195, 380,
  195, 382,
  195, 386,
  195, 395,
  195, 399,
  195, 401,
  195, 405,
  195, 406,
  195, 407,
  195, 408,
  195, 415,
  195, 416,
  195, 422,
  195, 423,
  195, 425,
  195, 426,
  195, 427,
  195, 429,
  195, 430,
  195, 434,
  195, 435,
  195, 436,
  195, 439,
  195, 440,
  195, 442,
  195, 444,
  195, 445,
  195, 448,
  195, 449,
  195, 450,
  195, 452,
  195, 455,
  195, 456,
  195, 458,
  195, 459,
  195, 464,
  195, 465,
  195, 467,
  195, 471,
  195, 474,
  195, 475,
  195, 476,
  195, 477,
  195, 479,
  195, 480,
  195, 481,
  195, 483,
  195, 485,
  195, 486,
  195, 487,
  195, 488,
  195, 490,
  195, 491,
  195, 494,
  195, 496,
  195, 500,
  196, 199,
  196, 200,
  196, 204,
  196, 206,
  196, 208,
  196, 211,
  196, 212,
  196, 214,
  196, 221,
  196, 223,
  196, 225,
  196, 226,
  196, 228,
  196, 230,
  196, 234,
  196, 235,
  196, 239,
  196, 242,
  196, 244,
  196, 246,
  196, 248,
  196, 249,
  196, 250,
  196, 251,
  196, 252,
  196, 255,
  196, 257,
  196, 258,
  196, 263,
  196, 265,
  196, 268,
  196, 273,
  196, 274,
  196, 275,
  196, 278,
  196, 280,
  196, 281,
  196, 282,
  196, 283,
  196, 285,
  196, 287,
  196, 288,
  196, 293,
  196, 294,
  196, 295,
  196, 296,
  196, 297,
  196, 299,
  196, 300,
  196, 301,
  196, 302,
  196, 303,
  196, 306,
  196, 307,
  196, 308,
  196, 311,
  196, 315,
  196, 316,
  196, 317,
  196, 319,
  196, 321,
  196, 322,
  196, 325,
  196, 326,
  196, 327,
  196, 330,
  196, 332,
  196, 333,
  196, 334,
  196, 336,
  196, 339,
  196, 346,
  196, 347,
  196, 348,
  196, 349,
  196, 351,
  196, 353,
  196, 354,
  196, 355,
  196, 356,
  196, 357,
  196, 359,
  196, 360,
  196, 361,
  196, 362,
  196, 364,
  196, 368,
  196, 371,
  196, 372,
  196, 376,
  196, 377,
  196, 378,
  196, 380,
  196, 381,
  196, 382,
  196, 383,
  196, 386,
  196, 389,
  196, 391,
  196, 393,
  196, 394,
  196, 395,
  196, 396,
  196, 397,
  196, 400,
  196, 401,
  196, 405,
  196, 406,
  196, 409,
  196, 410,
  196, 411,
  196, 412,
  196, 416,
  196, 417,
  196, 418,
  196, 419,
  196, 420,
  196, 423,
  196, 425,
  196, 426,
  196, 427,
  196, 428,
  196, 429,
  196, 431,
  196, 433,
  196, 434,
  196, 437,
  196, 438,
  196, 439,
  196, 442,
  196, 444,
  196, 445,
  196, 446,
  196, 447,
  196, 449,
  196, 450,
  196, 451,
  196, 454,
  196, 455,
  196, 459,
  196, 462,
  196, 463,
  196, 464,
  196, 465,
  196, 467,
  196, 470,
  196, 471,
  196, 474,
  196, 476,
  196, 477,
  196, 480,
  196, 481,
  196, 482,
  196, 483,
  196, 485,
  196, 488,
  196, 489,
  196, 490,
  196, 491,
  196, 493,
  196, 494,
  196, 496,
  196, 497,
  196, 498,
  197, 198,
  197, 199,
  197, 204,
  197, 205,
  197, 207,
  197, 209,
  197, 212,
  197, 213,
  197, 214,
  197, 215,
  197, 216,
  197, 218,
  197, 221,
  197, 222,
  197, 223,
  197, 224,
  197, 226,
  197, 228,
  197, 230,
  197, 231,
  197, 233,
  197, 235,
  197, 236,
  197, 241,
  197, 243,
  197, 244,
  197, 245,
  197, 246,
  197, 249,
  197, 250,
  197, 251,
  197, 256,
  197, 257,
  197, 259,
  197, 261,
  197, 262,
  197, 263,
  197, 265,
  197, 266,
  197, 267,
  197, 270,
  197, 271,
  197, 272,
  197, 275,
  197, 277,
  197, 280,
  197, 281,
  197, 282,
  197, 283,
  197, 284,
  197, 285,
  197, 286,
  197, 287,
  197, 288,
  197, 292,
  197, 299,
  197, 300,
  197, 301,
  197, 303,
  197, 304,
  197, 307,
  197, 308,
  197, 309,
  197, 312,
  197, 314,
  197, 317,
  197, 320,
  197, 321,
  197, 323,
  197, 325,
  197, 327,
  197, 329,
  197, 330,
  197, 333,
  197, 334,
  197, 335,
  197, 336,
  197, 338,
  197, 339,
  197, 340,
  197, 344,
  197, 345,
  197, 346,
  197, 348,
  197, 351,
  197, 352,
  197, 353,
  197, 354,
  197, 355,
  197, 356,
  197, 357,
  197, 358,
  197, 361,
  197, 366,
  197, 367,
  197, 369,
  197, 371,
  197, 372,
  197, 374,
  197, 376,
  197, 377,
  197, 379,
  197, 380,
  197, 381,
  197, 382,
  197, 383,
  197, 384,
  197, 387,
  197, 390,
  197, 391,
  197, 394,
  197, 395,
  197, 397,
  197, 400,
  197, 401,
  197, 402,
  197, 405,
  197, 406,
  197, 407,
  197, 408,
  197, 411,
  197, 412,
  197, 415,
  197, 417,
  197, 420,
  197, 422,
  197, 423,
  197, 426,
  197, 427,
  197, 428,
  197, 430,
  197, 431,
  197, 432,
  197, 435,
  197, 436,
  197, 438,
  197, 439,
  197, 440,
  197, 441,
  197, 442,
  197, 448,
  197, 450,
  197, 455,
  197, 456,
  197, 457,
  197, 460,
  197, 461,
  197, 462,
  197, 463,
  197, 464,
  197, 465,
  197, 466,
  197, 467,
  197, 469,
  197, 473,
  197, 476,
  197, 480,
  197, 481,
  197, 482,
  197, 483,
  197, 491,
  197, 494,
  198, 201,
  198, 202,
  198, 203,
  198, 204,
  198, 206,
  198, 207,
  198, 212,
  198, 213,
  198, 216,
  198, 217,
  198, 218,
  198, 220,
  198, 222,
  198, 224,
  198, 225,
  198, 226,
  198, 229,
  198, 230,
  198, 237,
  198, 242,
  198, 244,
  198, 246,
  198, 247,
  198, 248,
  198, 250,
  198, 252,
  198, 255,
  198, 256,
  198, 257,
  198, 258,
  198, 259,
  198, 260,
  198, 263,
  198, 265,
  198, 266,
  198, 267,
  198, 268,
  198, 269,
  198, 270,
  198, 274,
  198, 275,
  198, 276,
  198, 278,
  198, 285,
  198, 286,
  198, 288,
  198, 290,
  198, 294,
  198, 298,
  198, 300,
  198, 306,
  198, 307,
  198, 308,
  198, 312,
  198, 313,
  198, 315,
  198, 317,
  198, 320,
  198, 321,
  198, 326,
  198, 334,
  198, 335,
  198, 336,
  198, 337,
  198, 339,
  198, 343,
  198, 347,
  198, 348,
  198, 350,
  198, 352,
  198, 353,
  198, 356,
  198, 357,
  198, 358,
  198, 359,
  198, 361,
  198, 366,
  198, 369,
  198, 370,
  198, 372,
  198, 375,
  198, 377,
  198, 379,
  198, 381,
  198, 383,
  198, 384,
  198, 386,
  198, 389,
  198, 390,
  198, 391,
  198, 392,
  198, 393,
  198, 395,
  198, 396,
  198, 399,
  198, 401,
  198, 404,
  198, 406,
  198, 410,
  198, 411,
  198, 413,
  198, 414,
  198, 416,
  198, 417,
  198, 420,
  198, 421,
  198, 422,
  198, 424,
  198, 425,
  198, 427,
  198, 428,
  198, 431,
  198, 433,
  198, 434,
  198, 435,
  198, 436,
  198, 438,
  198, 441,
  198, 447,
  198, 451,
  198, 452,
  198, 454,
  198, 457,
  198, 458,
  198, 459,
  198, 461,
  198, 465,
  198, 466,
  198, 467,
  198, 470,
  198, 471,
  198, 473,
  198, 474,
  198, 481,
  198, 482,
  198, 483,
  198, 484,
  198, 485,
  198, 486,
  198, 487,
  198, 489,
  198, 490,
  198, 491,
  198, 493,
  198, 495,
  198, 496,
  198, 497,
  198, 499,
  199, 200,
  199, 202,
  199, 206,
  199, 207,
  199, 208,
  199, 209,
  199, 212,
  199, 215,
  199, 216,
  199, 218,
  199, 219,
  199, 220,
  199, 222,
  199, 225,
  199, 226,
  199, 227,
  199, 228,
  199, 229,
  199, 232,
  199, 236,
  199, 238,
  199, 240,
  199, 241,
  199, 243,
  199, 245,
  199, 247,
  199, 248,
  199, 249,
  199, 252,
  199, 256,
  199, 259,
  199, 263,
  199, 266,
  199, 267,
  199, 269,
  199, 273,
  199, 274,
  199, 278,
  199, 279,
  199, 280,
  199, 283,
  199, 284,
  199, 286,
  199, 287,
  199, 288,
  199, 290,
  199, 294,
  199, 295,
  199, 296,
  199, 297,
  199, 300,
  199, 301,
  199, 302,
  199, 304,
  199, 305,
  199, 306,
  199, 311,
  199, 312,
  199, 315,
  199, 317,
  199, 318,
  199, 320,
  199, 324,
  199, 325,
  199, 327,
  199, 328,
  199, 330,
  199, 331,
  199, 332,
  199, 334,
  199, 335,
  199, 336,
  199, 338,
  199, 341,
  199, 343,
  199, 347,
  199, 351,
  199, 352,
  199, 354,
  199, 355,
  199, 363,
  199, 364,
  199, 366,
  199, 370,
  199, 374,
  199, 375,
  199, 376,
  199, 377,
  199, 379,
  199, 383,
  199, 385,
  199, 386,
  199, 389,
  199, 391,
  199, 394,
  199, 397,
  199, 398,
  199, 399,
  199, 400,
  199, 406,
  199, 408,
  199, 409,
  199, 410,
  199, 412,
  199, 413,
  199, 414,
  199, 418,
  199, 419,
  199, 420,
  199, 421,
  199, 425,
  199, 426,
  199, 427,
  199, 428,
  199, 435,
  199, 437,
  199, 440,
  199, 441,
  199, 445,
  199, 446,
  199, 447,
  199, 448,
  199, 449,
  199, 452,
  199, 456,
  199, 457,
  199, 458,
  199, 459,
  199, 460,
  199, 462,
  199, 469,
  199, 470,
  199, 472,
  199, 473,
  199, 475,
  199, 476,
  199, 478,
  199, 482,
  199, 487,
  199, 489,
  199, 493,
  199, 498,
  200, 201,
  200, 202,
  200, 204,
  200, 205,
  200, 206,
  200, 207,
  200, 209,
  200, 211,
  200, 213,
  200, 215,
  200, 217,
  200, 218,
  200, 220,
  200, 221,
  200, 223,
  200, 224,
  200, 225,
  200, 226,
  200, 227,
  200, 228,
  200, 229,
  200, 232,
  200, 233,
  200, 238,
  200, 241,
  200, 242,
  200, 243,
  200, 244,
  200, 245,
  200, 246,
  200, 247,
  200, 252,
  200, 255,
  200, 256,
  200, 257,
  200, 258,
  200, 260,
  200, 261,
  200, 264,
  200, 265,
  200, 266,
  200, 271,
  200, 273,
  200, 275,
  200, 278,
  200, 281,
  200, 284,
  200, 287,
  200, 291,
  200, 292,
  200, 293,
  200, 295,
  200, 298,
  200, 299,
  200, 302,
  200, 304,
  200, 305,
  200, 313,
  200, 314,
  200, 315,
  200, 317,
  200, 318,
  200, 325,
  200, 326,
  200, 327,
  200, 332,
  200, 333,
  200, 334,
  200, 337,
  200, 338,
  200, 341,
  200, 344,
  200, 345,
  200, 347,
  200, 351,
  200, 352,
  200, 355,
  200, 356,
  200, 360,
  200, 364,
  200, 365,
  200, 366,
  200, 367,
  200, 368,
  200, 369,
  200, 370,
  200, 373,
  200, 375,
  200, 378,
  200, 380,
  200, 384,
  200, 386,
  200, 389,
  200, 390,
  200, 391,
  200, 392,
  200, 395,
  200, 397,
  200, 398,
  200, 410,
  200, 413,
  200, 415,
  200, 416,
  200, 417,
  200, 420,
  200, 421,
  200, 423,
  200, 424,
  200, 425,
  200, 426,
  200, 429,
  200, 430,
  200, 431,
  200, 433,
  200, 434,
  200, 435,
  200, 437,
  200, 438,
  200, 440,
  200, 442,
  200, 445,
  200, 447,
  200, 449,
  200, 452,
  200, 453,
  200, 455,
  200, 456,
  200, 462,
  200, 463,
  200, 466,
  200, 467,
  200, 468,
  200, 470,
  200, 471,
  200, 473,
  200, 475,
  200, 478,
  200, 479,
  200, 481,
  200, 487,
  200, 488,
  200, 490,
  200, 492,
  200, 493,
  200, 494,
  200, 495,
  200, 496,
  200, 498,
  201, 202,
  201, 203,
  201, 204,
  201, 209,
  201, 214,
  201, 217,
  201, 219,
  201, 220,
  201, 221,
  201, 223,
  201, 225,
  201, 229,
  201, 233,
  201, 235,
  201, 236,
  201, 237,
  201, 238,
  201, 243,
  201, 245,
  201, 246,
  201, 250,
  201, 253,
  201, 254,
  201, 255,
  201, 256,
  201, 257,
  201, 259,
  201, 261,
  201, 262,
  201, 265,
  201, 266,
  201, 268,
  201, 269,
  201, 270,
  201, 272,
  201, 276,
  201, 279,
  201, 282,
  201, 283,
  201, 284,
  201, 286,
  201, 289,
  201, 292,
  201, 295,
  201, 297,
  201, 298,
  201, 302,
  201, 304,
  201, 306,
  201, 308,
  201, 310,
  201, 313,
  201, 315,
  201, 316,
  201, 317,
  201, 319,
  201, 323,
  201, 324,
  201, 325,
  201, 326,
  201, 328,
  201, 330,
  201, 331,
  201, 334,
  201, 339,
  201, 342,
  201, 343,
  201, 345,
  201, 348,
  201, 350,
  201, 352,
  201, 354,
  201, 355,
  201, 360,
  201, 364,
  201, 371,
  201, 372,
  201, 375,
  201, 376,
  201, 377,
  201, 378,
  201, 379,
  201, 380,
  201, 383,
  201, 384,
  201, 385,
  201, 387,
  201, 388,
  201, 390,
  201, 391,
  201, 392,
  201, 394,
  201, 396,
  201, 398,
  201, 399,
  201, 400,
  201, 401,
  201, 404,
  201, 406,
  201, 407,
  201, 410,
  201, 411,
  201, 412,
  201, 413,
  201, 415,
  201, 416,
  201, 417,
  201, 419,
  201, 422,
  201, 423,
  201, 425,
  201, 428,
  201, 429,
  201, 430,
  201, 432,
  201, 433,
  201, 436,
  201, 440,
  201, 441,
  201, 442,
  201, 445,
  201, 448,
  201, 450,
  201, 451,
  201, 452,
  201, 455,
  201, 456,
  201, 458,
  201, 459,
  201, 461,
  201, 463,
  201, 465,
  201, 466,
  201, 467,
  201, 468,
  201, 469,
  201, 471,
  201, 472,
  201, 474,
  201, 475,
  201, 476,
  201, 477,
  201, 478,
  201, 480,
  201, 482,
  201, 484,
  201, 485,
  201, 486,
  201, 489,
  201, 490,
  201, 491,
  201, 495,
  201, 500,
  202, 203,
  202, 206,
  202, 210,
  202, 212,
  202, 214,
  202, 215,
  202, 217,
  202, 218,
  202, 222,
  202, 223,
  202, 224,
  202, 226,
  202, 227,
  202, 230,
  202, 231,
  202, 232,
  202, 233,
  202, 235,
  202, 236,
  202, 237,
  202, 238,
  202, 239,
  202, 245,
  202, 249,
  202, 251,
  202, 252,
  202, 253,
  202, 256,
  202, 259,
  202, 261,
  202, 262,
  202, 263,
  202, 264,
  202, 265,
  202, 268,
  202, 270,
  202, 273,
  202, 278,
  202, 280,
  202, 285,
  202, 287,
  202, 292,
  202, 294,
  202, 295,
  202, 296,
  202, 299,
  202, 302,
  202, 304,
  202, 305,
  202, 308,
  202, 310,
  202, 311,
  202, 312,
  202, 313,
  202, 320,
  202, 323,
  202, 325,
  202, 326,
  202, 327,
  202, 328,
  202, 333,
  202, 334,
  202, 336,
  202, 337,
  202, 338,
  202, 340,
  202, 344,
  202, 347,
  202, 348,
  202, 351,
  202, 355,
  202, 356,
  202, 358,
  202, 363,
  202, 364,
  202, 365,
  202, 366,
  202, 367,
  202, 368,
  202, 369,
  202, 370,
  202, 374,
  202, 375,
  202, 378,
  202, 381,
  202, 384,
  202, 385,
  202, 386,
  202, 387,
  202, 388,
  202, 389,
  202, 392,
  202, 395,
  202, 399,
  202, 400,
  202, 401,
  202, 409,
  202, 412,
  202, 413,
  202, 414,
  202, 415,
  202, 418,
  202, 419,
  202, 421,
  202, 422,
  202, 424,
  202, 426,
  202, 427,
  202, 428,
  202, 429,
  202, 432,
  202, 435,
  202, 436,
  202, 437,
  202, 438,
  202, 445,
  202, 447,
  202, 448,
  202, 457,
  202, 458,
  202, 461,
  202, 465,
  202, 466,
  202, 468,
  202, 469,
  202, 470,
  202, 471,
  202, 472,
  202, 473,
  202, 474,
  202, 476,
  202, 477,
  202, 479,
  202, 480,
  202, 481,
  202, 482,
  202, 484,
  202, 486,
  202, 489,
  202, 490,
  202, 491,
  202, 494,
  202, 496,
  203, 204,
  203, 206,
  203, 208,
  203, 210,
  203, 215,
  203, 217,
  203, 218,
  203, 219,
  203, 220,
  203, 224,
  203, 225,
  203, 226,
  203, 228,
  203, 230,
  203, 231,
  203, 232,
  203, 233,
  203, 235,
  203, 236,
  203, 241,
  203, 245,
  203, 247,
  203, 249,
  203, 250,
  203, 251,
  203, 253,
  203, 254,
  203, 261,
  203, 262,
  203, 265,
  203, 266,
  203, 268,
  203, 271,
  203, 273,
  203, 274,
  203, 275,
  203, 276,
  203, 279,
  203, 280,
  203, 281,
  203, 283,
  203, 284,
  203, 286,
  203, 287,
  203, 288,
  203, 290,
  203, 291,
  203, 292,
  203, 295,
  203, 297,
  203, 300,
  203, 301,
  203, 303,
  203, 305,
  203, 311,
  203, 312,
  203, 313,
  203, 314,
  203, 318,
  203, 321,
  203, 324,
  203, 325,
  203, 326,
  203, 327,
  203, 328,
  203, 330,
  203, 331,
  203, 337,
  203, 340,
  203, 341,
  203, 342,
  203, 344,
  203, 346,
  203, 350,
  203, 352,
  203, 353,
  203, 354,
  203, 355,
  203, 356,
  203, 360,
  203, 362,
  203, 363,
  203, 365,
  203, 366,
  203, 367,
  203, 368,
  203, 369,
  203, 372,
  203, 373,
  203, 378,
  203, 380,
  203, 387,
  203, 390,
  203, 394,
  203, 395,
  203, 396,
  203, 400,
  203, 403,
  203, 404,
  203, 405,
  203, 406,
  203, 409,
  203, 411,
  203, 413,
  203, 414,
  203, 417,
  203, 419,
  203, 420,
  203, 421,
  203, 422,
  203, 425,
  203, 430,
  203, 431,
  203, 432,
  203, 433,
  203, 434,
  203, 436,
  203, 438,
  203, 439,
  203, 440,
  203, 441,
  203, 447,
  203, 448,
  203, 449,
  203, 450,
  203, 452,
  203, 455,
  203, 456,
  203, 459,
  203, 462,
  203, 464,
  203, 468,
  203, 469,
  203, 473,
  203, 477,
  203, 479,
  203, 483,
  203, 484,
  203, 486,
  203, 488,
  203, 489,
  203, 490,
  203, 491,
  203, 492,
  203, 493,
  203, 494,
  203, 500,
  204, 205,
  204, 207,
  204, 209,
  204, 210,
  204, 211,
  204, 213,
  204, 216,
  204, 218,
  204, 220,
  204, 226,
  204, 227,
  204, 230,
  204, 232,
  204, 233,
  204, 235,
  204, 236,
  204, 238,
  204, 239,
  204, 240,
  204, 242,
  204, 243,
  204, 244,
  204, 248,
  204, 249,
  204, 250,
  204, 252,
  204, 257,
  204, 258,
  204, 259,
  204, 261,
  204, 263,
  204, 267,
  204, 268,
  204, 271,
  204, 272,
  204, 275,
  204, 277,
  204, 278,
  204, 280,
  204, 281,
  204, 282,
  204, 283,
  204, 284,
  204, 286,
  204, 287,
  204, 289,
  204, 290,
  204, 291,
  204, 292,
  204, 293,
  204, 294,
  204, 295,
  204, 296,
  204, 297,
  204, 298,
  204, 299,
  204, 300,
  204, 301,
  204, 302,
  204, 308,
  204, 313,
  204, 314,
  204, 318,
  204, 320,
  204, 322,
  204, 327,
  204, 328,
  204, 329,
  204, 330,
  204, 331,
  204, 333,
  204, 335,
  204, 337,
  204, 343,
  204, 345,
  204, 346,
  204, 353,
  204, 354,
  204, 355,
  204, 356,
  204, 357,
  204, 359,
  204, 360,
  204, 363,
  204, 364,
  204, 365,
  204, 367,
  204, 371,
  204, 372,
  204, 373,
  204, 374,
  204, 375,
  204, 376,
  204, 377,
  204, 381,
  204, 382,
  204, 383,
  204, 385,
  204, 395,
  204, 402,
  204, 403,
  204, 405,
  204, 406,
  204, 410,
  204, 412,
  204, 413,
  204, 414,
  204, 415,
  204, 416,
  204, 417,
  204, 418,
  204, 420,
  204, 429,
  204, 431,
  204, 433,
  204, 438,
  204, 441,
  204, 444,
  204, 448,
  204, 449,
  204, 450,
  204, 452,
  204, 454,
  204, 458,
  204, 462,
  204, 466,
  204, 467,
  204, 468,
  204, 469,
  204, 470,
  204, 473,
  204, 477,
  204, 480,
  204, 482,
  204, 486,
  204, 488,
  204, 489,
  204, 490,
  204, 492,
  204, 495,
  204, 497,
  204, 498,
  204, 499,
  205, 206,
  205, 207,
  205, 210,
  205, 212,
  205, 213,
  205, 219,
  205, 220,
  205, 221,
  205, 222,
  205, 228,
  205, 229,
  205, 231,
  205, 233,
  205, 236,
  205, 237,
  205, 238,
  205, 239,
  205, 240,
  205, 243,
  205, 244,
  205, 246,
  205, 247,
  205, 249,
  205, 250,
  205, 252,
  205, 254,
  205, 256,
  205, 257,
  205, 258,
  205, 260,
  205, 261,
  205, 262,
  205, 263,
  205, 264,
  205, 265,
  205, 268,
  205, 269,
  205, 270,
  205, 272,
  205, 274,
  205, 278,
  205, 279,
  205, 280,
  205, 283,
  205, 285,
  205, 287,
  205, 288,
  205, 289,
  205, 291,
  205, 292,
  205, 293,
  205, 295,
  205, 298,
  205, 301,
  205, 303,
  205, 304,
  205, 308,
  205, 311,
  205, 313,
  205, 321,
  205, 323,
  205, 324,
  205, 327,
  205, 328,
  205, 330,
  205, 332,
  205, 333,
  205, 337,
  205, 341,
  205, 342,
  205, 343,
  205, 345,
  205, 346,
  205, 347,
  205, 352,
  205, 353,
  205, 356,
  205, 358,
  205, 360,
  205, 362,
  205, 363,
  205, 366,
  205, 367,
  205, 368,
  205, 369,
  205, 371,
  205, 372,
  205, 373,
  205, 375,
  205, 377,
  205, 378,
  205, 379,
  205, 380,
  205, 381,
  205, 382,
  205, 384,
  205, 387,
  205, 389,
  205, 390,
  205, 392,
  205, 394,
  205, 395,
  205, 396,
  205, 398,
  205, 399,
  205, 401,
  205, 402,
  205, 403,
  205, 404,
  205, 406,
  205, 410,
  205, 412,
  205, 414,
  205, 415,
  205, 416,
  205, 419,
  205, 421,
  205, 422,
  205, 425,
  205, 428,
  205, 432,
  205, 433,
  205, 437,
  205, 439,
  205, 440,
  205, 445,
  205, 449,
  205, 452,
  205, 454,
  205, 456,
  205, 457,
  205, 462,
  205, 463,
  205, 465,
  205, 466,
  205, 467,
  205, 470,
  205, 471,
  205, 473,
  205, 474,
  205, 479,
  205, 480,
  205, 482,
  205, 483,
  205, 485,
  205, 487,
  205, 489,
  205, 490,
  205, 492,
  205, 493,
  205, 495,
  205, 497,
  205, 500,
  206, 207,
  206, 209,
  206, 211,
  206, 213,
  206, 215,
  206, 216,
  206, 217,
  206, 221,
  206, 222,
  206, 229,
  206, 230,
  206, 231,
  206, 233,
  206, 234,
  206, 237,
  206, 238,
  206, 242,
  206, 243,
  206, 250,
  206, 251,
  206, 252,
  206, 253,
  206, 254,
  206, 255,
  206, 257,
  206, 258,
  206, 267,
  206, 271,
  206, 273,
  206, 275,
  206, 279,
  206, 282,
  206, 284,
  206, 285,
  206, 286,
  206, 287,
  206, 289,
  206, 290,
  206, 292,
  206, 293,
  206, 297,
  206, 298,
  206, 300,
  206, 301,
  206, 302,
  206, 306,
  206, 309,
  206, 311,
  206, 313,
  206, 314,
  206, 317,
  206, 318,
  206, 319,
  206, 322,
  206, 323,
  206, 325,
  206, 327,
  206, 332,
  206, 334,
  206, 336,
  206, 337,
  206, 338,
  206, 340,
  206, 341,
  206, 342,
  206, 343,
  206, 347,
  206, 348,
  206, 349,
  206, 350,
  206, 352,
  206, 354,
  206, 355,
  206, 358,
  206, 359,
  206, 361,
  206, 362,
  206, 364,
  206, 365,
  206, 370,
  206, 372,
  206, 375,
  206, 376,
  206, 378,
  206, 379,
  206, 384,
  206, 385,
  206, 386,
  206, 389,
  206, 391,
  206, 392,
  206, 394,
  206, 396,
  206, 397,
  206, 399,
  206, 400,
  206, 401,
  206, 402,
  206, 404,
  206, 405,
  206, 406,
  206, 407,
  206, 409,
  206, 411,
  206, 413,
  206, 414,
  206, 415,
  206, 420,
  206, 422,
  206, 423,
  206, 424,
  206, 425,
  206, 427,
  206, 428,
  206, 430,
  206, 431,
  206, 433,
  206, 435,
  206, 436,
  206, 437,
  206, 438,
  206, 441,
  206, 442,
  206, 443,
  206, 444,
  206, 446,
  206, 448,
  206, 449,
  206, 454,
  206, 458,
  206, 460,
  206, 465,
  206, 468,
  206, 473,
  206, 474,
  206, 476,
  206, 477,
  206, 481,
  206, 489,
  206, 490,
  206, 494,
  206, 496,
  206, 497,
  206, 498,
  206, 499,
  207, 212,
  207, 221,
  207, 223,
  207, 224,
  207, 225,
  207, 226,
  207, 228,
  207, 229,
  207, 231,
  207, 236,
  207, 237,
  207, 238,
  207, 239,
  207, 242,
  207, 243,
  207, 244,
  207, 245,
  207, 247,
  207, 249,
  207, 251,
  207, 253,
  207, 254,
  207, 256,
  207, 257,
  207, 259,
  207, 261,
  207, 264,
  207, 267,
  207, 268,
  207, 269,
  207, 270,
  207, 271,
  207, 274,
  207, 276,
  207, 277,
  207, 279,
  207, 282,
  207, 283,
  207, 284,
  207, 285,
  207, 286,
  207, 288,
  207, 292,
  207, 294,
  207, 295,
  207, 296,
  207, 300,
  207, 302,
  207, 305,
  207, 306,
  207, 308,
  207, 312,
  207, 313,
  207, 314,
  207, 318,
  207, 319,
  207, 321,
  207, 322,
  207, 324,
  207, 327,
  207, 329,
  207, 330,
  207, 334,
  207, 335,
  207, 339,
  207, 340,
  207, 341,
  207, 342,
  207, 344,
  207, 347,
  207, 348,
  207, 349,
  207, 353,
  207, 354,
  207, 355,
  207, 356,
  207, 357,
  207, 358,
  207, 359,
  207, 363,
  207, 364,
  207, 367,
  207, 368,
  207, 369,
  207, 371,
  207, 374,
  207, 376,
  207, 377,
  207, 378,
  207, 387,
  207, 390,
  207, 391,
  207, 392,
  207, 393,
  207, 395,
  207, 396,
  207, 397,
  207, 398,
  207, 399,
  207, 400,
  207, 401,
  207, 402,
  207, 403,
  207, 404,
  207, 405,
  207, 406,
  207, 409,
  207, 410,
  207, 415,
  207, 416,
  207, 420,
  207, 421,
  207, 423,
  207, 431,
  207, 432,
  207, 434,
  207, 436,
  207, 439,
  207, 440,
  207, 441,
  207, 447,
  207, 448,
  207, 449,
  207, 453,
  207, 454,
  207, 456,
  207, 457,
  207, 461,
  207, 463,
  207, 464,
  207, 468,
  207, 469,
  207, 471,
  207, 472,
  207, 473,
  207, 474,
  207, 475,
  207, 478,
  207, 479,
  207, 481,
  207, 486,
  207, 487,
  207, 488,
  207, 491,
  207, 493,
  207, 495,
  207, 496,
  207, 498,
  208, 209,
  208, 211,
  208, 215,
  208, 216,
  208, 217,
  208, 218,
  208, 225,
  208, 226,
  208, 227,
  208, 228,
  208, 229,
  208, 231,
  208, 234,
  208, 235,
  208, 237,
  208, 239,
  208, 241,
  208, 242,
  208, 244,
  208, 245,
  208, 246,
  208, 249,
  208, 252,
  208, 256,
  208, 264,
  208, 265,
  208, 266,
  208, 268,
  208, 269,
  208, 273,
  208, 276,
  208, 277,
  208, 278,
  208, 280,
  208, 281,
  208, 282,
  208, 284,
  208, 285,
  208, 286,
  208, 288,
  208, 289,
  208, 290,
  208, 292,
  208, 294,
  208, 297,
  208, 298,
  208, 302,
  208, 305,
  208, 306,
  208, 307,
  208, 308,
  208, 310,
  208, 313,
  208, 317,
  208, 320,
  208, 321,
  208, 323,
  208, 325,
  208, 327,
  208, 329,
  208, 330,
  208, 331,
  208, 332,
  208, 335,
  208, 336,
  208, 338,
  208, 339,
  208, 341,
  208, 344,
  208, 345,
  208, 346,
  208, 349,
  208, 350,
  208, 352,
  208, 354,
  208, 355,
  208, 356,
  208, 358,
  208, 359,
  208, 360,
  208, 361,
  208, 364,
  208, 366,
  208, 372,
  208, 375,
  208, 377,
  208, 378,
  208, 379,
  208, 381,
  208, 382,
  208, 384,
  208, 386,
  208, 388,
  208, 392,
  208, 393,
  208, 394,
  208, 395,
  208, 396,
  208, 397,
  208, 398,
  208, 400,
  208, 402,
  208, 403,
  208, 404,
  208, 405,
  208, 406,
  208, 407,
  208, 410,
  208, 411,
  208, 412,
  208, 414,
  208, 416,
  208, 417,
  208, 418,
  208, 422,
  208, 423,
  208, 424,
  208, 429,
  208, 435,
  208, 436,
  208, 439,
  208, 442,
  208, 443,
  208, 447,
  208, 448,
  208, 450,
  208, 451,
  208, 452,
  208, 453,
  208, 454,
  208, 456,
  208, 457,
  208, 458,
  208, 459,
  208, 460,
  208, 463,
  208, 464,
  208, 465,
  208, 471,
  208, 472,
  208, 473,
  208, 474,
  208, 475,
  208, 478,
  208, 479,
  208, 481,
  208, 484,
  208, 488,
  208, 489,
  208, 490,
  208, 493,
  208, 494,
  208, 495,
  208, 496,
  208, 497,
  208, 498,
  208, 499,
  208, 500,
  209, 210,
  209, 214,
  209, 216,
  209, 218,
  209, 222,
  209, 223,
  209, 225,
  209, 226,
  209, 234,
  209, 236,
  209, 239,
  209, 240,
  209, 241,
  209, 244,
  209, 247,
  209, 252,
  209, 253,
  209, 255,
  209, 256,
  209, 257,
  209, 259,
  209, 261,
  209, 262,
  209, 263,
  209, 267,
  209, 271,
  209, 273,
  209, 276,
  209, 277,
  209, 279,
  209, 281,
  209, 282,
  209, 283,
  209, 289,
  209, 291,
  209, 293,
  209, 296,
  209, 300,
  209, 301,
  209, 302,
  209, 308,
  209, 310,
  209, 313,
  209, 316,
  209, 317,
  209, 320,
  209, 322,
  209, 324,
  209, 328,
  209, 331,
  209, 332,
  209, 333,
  209, 334,
  209, 339,
  209, 341,
  209, 342,
  209, 345,
  209, 346,
  209, 349,
  209, 350,
  209, 354,
  209, 356,
  209, 358,
  209, 359,
  209, 361,
  209, 362,
  209, 363,
  209, 364,
  209, 365,
  209, 367,
  209, 368,
  209, 372,
  209, 376,
  209, 378,
  209, 381,
  209, 383,
  209, 384,
  209, 385,
  209, 386,
  209, 387,
  209, 390,
  209, 392,
  209, 393,
  209, 394,
  209, 395,
  209, 399,
  209, 400,
  209, 401,
  209, 403,
  209, 408,
  209, 410,
  209, 413,
  209, 419,
  209, 422,
  209, 423,
  209, 424,
  209, 427,
  209, 429,
  209, 430,
  209, 431,
  209, 433,
  209, 435,
  209, 436,
  209, 437,
  209, 438,
  209, 446,
  209, 449,
  209, 451,
  209, 453,
  209, 454,
  209, 455,
  209, 457,
  209, 458,
  209, 459,
  209, 460,
  209, 462,
  209, 463,
  209, 464,
  209, 466,
  209, 467,
  209, 470,
  209, 471,
  209, 472,
  209, 474,
  209, 476,
  209, 477,
  209, 479,
  209, 483,
  209, 484,
  209, 488,
  209, 490,
  209, 491,
  209, 494,
  209, 495,
  209, 498,
  209, 500,
  210, 213,
  210, 215,
  210, 217,
  210, 219,
  210, 220,
  210, 225,
  210, 227,
  210, 228,
  210, 229,
  210, 230,
  210, 234,
  210, 236,
  210, 237,
  210, 244,
  210, 246,
  210, 247,
  210, 249,
  210, 251,
  210, 253,
  210, 255,
  210, 256,
  210, 258,
  210, 268,
  210, 269,
  210, 273,
  210, 275,
  210, 276,
  210, 277,
  210, 280,
  210, 281,
  210, 282,
  210, 283,
  210, 285,
  210, 287,
  210, 291,
  210, 293,
  210, 294,
  210, 296,
  210, 301,
  210, 302,
  210, 303,
  210, 304,
  210, 309,
  210, 310,
  210, 312,
  210, 314,
  210, 315,
  210, 319,
  210, 320,
  210, 327,
  210, 331,
  210, 334,
  210, 335,
  210, 336,
  210, 337,
  210, 338,
  210, 340,
  210, 344,
  210, 345,
  210, 348,
  210, 352,
  210, 354,
  210, 355,
  210, 356,
  210, 357,
  210, 359,
  210, 360,
  210, 361,
  210, 364,
  210, 366,
  210, 367,
  210, 368,
  210, 369,
  210, 370,
  210, 371,
  210, 372,
  210, 373,
  210, 374,
  210, 376,
  210, 378,
  210, 380,
  210, 382,
  210, 384,
  210, 385,
  210, 386,
  210, 389,
  210, 390,
  210, 392,
  210, 393,
  210, 394,
  210, 398,
  210, 401,
  210, 403,
  210, 406,
  210, 407,
  210, 416,
  210, 417,
  210, 418,
  210, 420,
  210, 423,
  210, 425,
  210, 426,
  210, 428,
  210, 430,
  210, 433,
  210, 436,
  210, 437,
  210, 439,
  210, 440,
  210, 441,
  210, 442,
  210, 443,
  210, 446,
  210, 447,
  210, 450,
  210, 455,
  210, 457,
  210, 459,
  210, 461,
  210, 462,
  210, 463,
  210, 467,
  210, 468,
  210, 471,
  210, 472,
  210, 473,
  210, 477,
  210, 478,
  210, 479,
  210, 480,
  210, 482,
  210, 485,
  210, 487,
  210, 489,
  210, 491,
  210, 495,
  210, 496,
  210, 497,
  210, 498,
  210, 499,
  211, 212,
  211, 214,
  211, 215,
  211, 218,
  211, 221,
  211, 224,
  211, 228,
  211, 230,
  211, 232,
  211, 233,
  211, 234,
  211, 235,
  211, 238,
  211, 239,
  211, 243,
  211, 244,
  211, 247,
  211, 250,
  211, 255,
  211, 256,
  211, 257,
  211, 258,
  211, 261,
  211, 262,
  211, 263,
  211, 264,
  211, 265,
  211, 266,
  211, 268,
  211, 270,
  211, 271,
  211, 272,
  211, 274,
  211, 275,
  211, 279,
  211, 281,
  211, 285,
  211, 287,
  211, 288,
  211, 291,
  211, 292,
  211, 294,
  211, 300,
  211, 301,
  211, 302,
  211, 307,
  211, 308,
  211, 312,
  211, 318,
  211, 321,
  211, 328,
  211, 330,
  211, 333,
  211, 335,
  211, 336,
  211, 343,
  211, 346,
  211, 347,
  211, 348,
  211, 349,
  211, 350,
  211, 351,
  211, 352,
  211, 353,
  211, 355,
  211, 357,
  211, 358,
  211, 359,
  211, 364,
  211, 366,
  211, 367,
  211, 369,
  211, 370,
  211, 373,
  211, 374,
  211, 379,
  211, 380,
  211, 382,
  211, 384,
  211, 386,
  211, 388,
  211, 389,
  211, 391,
  211, 392,
  211, 393,
  211, 394,
  211, 395,
  211, 396,
  211, 399,
  211, 400,
  211, 402,
  211, 404,
  211, 405,
  211, 406,
  211, 407,
  211, 408,
  211, 410,
  211, 412,
  211, 413,
  211, 415,
  211, 416,
  211, 419,
  211, 421,
  211, 422,
  211, 423,
  211, 425,
  211, 428,
  211, 429,
  211, 430,
  211, 431,
  211, 438,
  211, 441,
  211, 445,
  211, 446,
  211, 447,
  211, 448,
  211, 450,
  211, 455,
  211, 456,
  211, 459,
  211, 461,
  211, 463,
  211, 464,
  211, 466,
  211, 467,
  211, 468,
  211, 469,
  211, 471,
  211, 472,
  211, 473,
  211, 476,
  211, 478,
  211, 480,
  211, 481,
  211, 482,
  211, 484,
  211, 487,
  211, 488,
  211, 492,
  211, 494,
  211, 496,
  211, 500,
  212, 214,
  212, 215,
  212, 216,
  212, 217,
  212, 219,
  212, 222,
  212, 224,
  212, 225,
  212, 227,
  212, 228,
  212, 229,
  212, 233,
  212, 234,
  212, 236,
  212, 237,
  212, 239,
  212, 241,
  212, 243,
  212, 247,
  212, 250,
  212, 251,
  212, 253,
  212, 254,
  212, 256,
  212, 257,
  212, 258,
  212, 259,
  212, 260,
  212, 261,
  212, 262,
  212, 266,
  212, 269,
  212, 271,
  212, 273,
  212, 274,
  212, 275,
  212, 277,
  212, 281,
  212, 283,
  212, 284,
  212, 285,
  212, 286,
  212, 287,
  212, 290,
  212, 292,
  212, 293,
  212, 296,
  212, 298,
  212, 299,
  212, 300,
  212, 302,
  212, 304,
  212, 309,
  212, 311,
  212, 313,
  212, 315,
  212, 316,
  212, 317,
  212, 318,
  212, 319,
  212, 320,
  212, 321,
  212, 323,
  212, 325,
  212, 330,
  212, 332,
  212, 334,
  212, 339,
  212, 340,
  212, 341,
  212, 342,
  212, 343,
  212, 345,
  212, 346,
  212, 347,
  212, 348,
  212, 350,
  212, 351,
  212, 352,
  212, 353,
  212, 356,
  212, 357,
  212, 358,
  212, 359,
  212, 360,
  212, 361,
  212, 363,
  212, 364,
  212, 366,
  212, 367,
  212, 368,
  212, 371,
  212, 372,
  212, 373,
  212, 375,
  212, 380,
  212, 382,
  212, 385,
  212, 386,
  212, 387,
  212, 389,
  212, 390,
  212, 392,
  212, 393,
  212, 395,
  212, 397,
  212, 398,
  212, 399,
  212, 400,
  212, 403,
  212, 404,
  212, 406,
  212, 407,
  212, 408,
  212, 413,
  212, 414,
  212, 416,
  212, 417,
  212, 418,
  212, 421,
  212, 423,
  212, 427,
  212, 429,
  212, 430,
  212, 431,
  212, 433,
  212, 435,
  212, 438,
  212, 441,
  212, 443,
  212, 444,
  212, 445,
  212, 447,
  212, 448,
  212, 452,
  212, 454,
  212, 455,
  212, 456,
  212, 458,
  212, 460,
  212, 461,
  212, 462,
  212, 464,
  212, 465,
  212, 467,
  212, 469,
  212, 471,
  212, 474,
  212, 475,
  212, 477,
  212, 479,
  212, 486,
  212, 488,
  212, 489,
  212, 494,
  212, 495,
  212, 498,
  212, 500,
  213, 214,
  213, 215,
  213, 217,
  213, 219,
  213, 220,
  213, 221,
  213, 223,
  213, 227,
  213, 229,
  213, 230,
  213, 232,
  213, 234,
  213, 235,
  213, 237,
  213, 238,
  213, 243,
  213, 244,
  213, 246,
  213, 247,
  213, 248,
  213, 251,
  213, 252,
  213, 253,
  213, 255,
  213, 258,
  213, 259,
  213, 265,
  213, 267,
  213, 268,
  213, 272,
  213, 273,
  213, 274,
  213, 277,
  213, 279,
  213, 281,
  213, 285,
  213, 288,
  213, 291,
  213, 293,
  213, 296,
  213, 298,
  213, 300,
  213, 301,
  213, 303,
  213, 304,
  213, 306,
  213, 308,
  213, 312,
  213, 314,
  213, 318,
  213, 319,
  213, 321,
  213, 325,
  213, 326,
  213, 327,
  213, 334,
  213, 335,
  213, 337,
  213, 339,
  213, 341,
  213, 344,
  213, 345,
  213, 346,
  213, 348,
  213, 351,
  213, 353,
  213, 354,
  213, 356,
  213, 359,
  213, 360,
  213, 362,
  213, 363,
  213, 364,
  213, 366,
  213, 367,
  213, 370,
  213, 371,
  213, 372,
  213, 374,
  213, 376,
  213, 381,
  213, 382,
  213, 383,
  213, 384,
  213, 386,
  213, 387,
  213, 389,
  213, 392,
  213, 396,
  213, 397,
  213, 398,
  213, 402,
  213, 406,
  213, 409,
  213, 410,
  213, 411,
  213, 414,
  213, 416,
  213, 418,
  213, 421,
  213, 422,
  213, 424,
  213, 426,
  213, 427,
  213, 430,
  213, 431,
  213, 432,
  213, 434,
  213, 436,
  213, 440,
  213, 443,
  213, 445,
  213, 446,
  213, 448,
  213, 450,
  213, 451,
  213, 453,
  213, 454,
  213, 456,
  213, 457,
  213, 458,
  213, 459,
  213, 460,
  213, 461,
  213, 462,
  213, 463,
  213, 464,
  213, 465,
  213, 468,
  213, 469,
  213, 470,
  213, 471,
  213, 472,
  213, 476,
  213, 479,
  213, 481,
  213, 483,
  213, 484,
  213, 488,
  213, 491,
  213, 492,
  213, 493,
  213, 494,
  213, 497,
  213, 498,
  213, 500,
  214, 215,
  214, 216,
  214, 218,
  214, 219,
  214, 221,
  214, 222,
  214, 223,
  214, 226,
  214, 227,
  214, 231,
  214, 233,
  214, 234,
  214, 235,
  214, 239,
  214, 242,
  214, 243,
  214, 244,
  214, 245,
  214, 248,
  214, 250,
  214, 251,
  214, 252,
  214, 253,
  214, 254,
  214, 255,
  214, 257,
  214, 260,
  214, 261,
  214, 262,
  214, 264,
  214, 265,
  214, 269,
  214, 275,
  214, 276,
  214, 279,
  214, 280,
  214, 282,
  214, 286,
  214, 289,
  214, 292,
  214, 298,
  214, 299,
  214, 300,
  214, 301,
  214, 303,
  214, 304,
  214, 306,
  214, 307,
  214, 310,
  214, 311,
  214, 312,
  214, 315,
  214, 316,
  214, 317,
  214, 318,
  214, 319,
  214, 320,
  214, 322,
  214, 323,
  214, 325,
  214, 326,
  214, 327,
  214, 328,
  214, 330,
  214, 332,
  214, 333,
  214, 335,
  214, 336,
  214, 337,
  214, 338,
  214, 344,
  214, 350,
  214, 351,
  214, 355,
  214, 359,
  214, 360,
  214, 362,
  214, 364,
  214, 367,
  214, 370,
  214, 372,
  214, 373,
  214, 375,
  214, 376,
  214, 377,
  214, 382,
  214, 383,
  214, 384,
  214, 386,
  214, 389,
  214, 390,
  214, 393,
  214, 394,
  214, 395,
  214, 396,
  214, 397,
  214, 398,
  214, 402,
  214, 403,
  214, 404,
  214, 405,
  214, 406,
  214, 407,
  214, 409,
  214, 410,
  214, 411,
  214, 413,
  214, 414,
  214, 416,
  214, 417,
  214, 420,
  214, 421,
  214, 423,
  214, 426,
  214, 428,
  214, 429,
  214, 431,
  214, 435,
  214, 438,
  214, 441,
  214, 442,
  214, 443,
  214, 445,
  214, 446,
  214, 447,
  214, 448,
  214, 449,
  214, 450,
  214, 451,
  214, 453,
  214, 454,
  214, 455,
  214, 457,
  214, 458,
  214, 460,
  214, 462,
  214, 464,
  214, 465,
  214, 466,
  214, 467,
  214, 471,
  214, 472,
  214, 474,
  214, 477,
  214, 480,
  214, 481,
  214, 482,
  214, 485,
  214, 486,
  214, 492,
  214, 493,
  214, 494,
  214, 495,
  214, 498,
  214, 500,
  215, 217,
  215, 218,
  215, 221,
  215, 223,
  215, 224,
  215, 225,
  215, 229,
  215, 230,
  215, 231,
  215, 232,
  215, 235,
  215, 240,
  215, 245,
  215, 246,
  215, 247,
  215, 249,
  215, 251,
  215, 253,
  215, 254,
  215, 257,
  215, 263,
  215, 264,
  215, 265,
  215, 267,
  215, 269,
  215, 270,
  215, 271,
  215, 277,
  215, 279,
  215, 282,
  215, 283,
  215, 285,
  215, 287,
  215, 295,
  215, 296,
  215, 297,
  215, 298,
  215, 299,
  215, 302,
  215, 303,
  215, 304,
  215, 305,
  215, 306,
  215, 313,
  215, 316,
  215, 318,
  215, 323,
  215, 324,
  215, 328,
  215, 333,
  215, 336,
  215, 337,
  215, 338,
  215, 339,
  215, 340,
  215, 342,
  215, 344,
  215, 345,
  215, 348,
  215, 352,
  215, 354,
  215, 356,
  215, 357,
  215, 359,
  215, 361,
  215, 362,
  215, 364,
  215, 366,
  215, 367,
  215, 369,
  215, 371,
  215, 374,
  215, 375,
  215, 376,
  215, 378,
  215, 380,
  215, 382,
  215, 383,
  215, 384,
  215, 385,
  215, 387,
  215, 388,
  215, 397,
  215, 401,
  215, 402,
  215, 404,
  215, 405,
  215, 407,
  215, 412,
  215, 414,
  215, 415,
  215, 416,
  215, 417,
  215, 418,
  215, 419,
  215, 420,
  215, 423,
  215, 424,
  215, 425,
  215, 426,
  215, 427,
  215, 430,
  215, 431,
  215, 432,
  215, 437,
  215, 438,
  215, 441,
  215, 442,
  215, 443,
  215, 445,
  215, 446,
  215, 447,
  215, 451,
  215, 452,
  215, 453,
  215, 454,
  215, 457,
  215, 459,
  215, 460,
  215, 462,
  215, 463,
  215, 464,
  215, 466,
  215, 467,
  215, 468,
  215, 470,
  215, 472,
  215, 474,
  215, 475,
  215, 479,
  215, 480,
  215, 482,
  215, 483,
  215, 484,
  215, 485,
  215, 487,
  215, 488,
  215, 489,
  215, 491,
  215, 493,
  215, 494,
  215, 495,
  215, 497,
  216, 217,
  216, 221,
  216, 224,
  216, 225,
  216, 232,
  216, 235,
  216, 239,
  216, 242,
  216, 244,
  216, 246,
  216, 250,
  216, 253,
  216, 254,
  216, 255,
  216, 258,
  216, 260,
  216, 262,
  216, 265,
  216, 266,
  216, 268,
  216, 269,
  216, 273,
  216, 274,
  216, 279,
  216, 280,
  216, 281,
  216, 285,
  216, 286,
  216, 289,
  216, 290,
  216, 291,
  216, 292,
  216, 293,
  216, 297,
  216, 299,
  216, 300,
  216, 301,
  216, 304,
  216, 305,
  216, 308,
  216, 309,
  216, 313,
  216, 314,
  216, 315,
  216, 317,
  216, 318,
  216, 319,
  216, 320,
  216, 322,
  216, 323,
  216, 326,
  216, 327,
  216, 328,
  216, 334,
  216, 337,
  216, 338,
  216, 340,
  216, 341,
  216, 342,
  216, 344,
  216, 351,
  216, 360,
  216, 362,
  216, 363,
  216, 364,
  216, 366,
  216, 367,
  216, 368,
  216, 371,
  216, 375,
  216, 376,
  216, 377,
  216, 379,
  216, 381,
  216, 382,
  216, 383,
  216, 387,
  216, 388,
  216, 392,
  216, 393,
  216, 395,
  216, 398,
  216, 399,
  216, 400,
  216, 401,
  216, 402,
  216, 406,
  216, 407,
  216, 408,
  216, 409,
  216, 411,
  216, 415,
  216, 419,
  216, 420,
  216, 421,
  216, 423,
  216, 431,
  216, 432,
  216, 435,
  216, 437,
  216, 438,
  216, 439,
  216, 443,
  216, 447,
  216, 452,
  216, 453,
  216, 454,
  216, 455,
  216, 456,
  216, 457,
  216, 458,
  216, 460,
  216, 461,
  216, 462,
  216, 464,
  216, 465,
  216, 466,
  216, 467,
  216, 468,
  216, 469,
  216, 470,
  216, 472,
  216, 473,
  216, 474,
  216, 476,
  216, 478,
  216, 479,
  216, 480,
  216, 482,
  216, 483,
  216, 487,
  216, 489,
  216, 490,
  216, 492,
  216, 493,
  216, 494,
  216, 495,
  216, 496,
  216, 497,
  216, 500,
  217, 219,
  217, 221,
  217, 224,
  217, 226,
  217, 227,
  217, 228,
  217, 231,
  217, 232,
  217, 236,
  217, 237,
  217, 238,
  217, 240,
  217, 242,
  217, 243,
  217, 249,
  217, 252,
  217, 254,
  217, 255,
  217, 256,
  217, 257,
  217, 260,
  217, 261,
  217, 264,
  217, 265,
  217, 268,
  217, 270,
  217, 271,
  217, 272,
  217, 273,
  217, 274,
  217, 276,
  217, 279,
  217, 282,
  217, 286,
  217, 287,
  217, 290,
  217, 291,
  217, 295,
  217, 296,
  217, 297,
  217, 298,
  217, 299,
  217, 300,
  217, 302,
  217, 303,
  217, 305,
  217, 307,
  217, 308,
  217, 309,
  217, 312,
  217, 313,
  217, 316,
  217, 317,
  217, 318,
  217, 319,
  217, 320,
  217, 321,
  217, 322,
  217, 325,
  217, 329,
  217, 330,
  217, 331,
  217, 333,
  217, 334,
  217, 336,
  217, 338,
  217, 340,
  217, 341,
  217, 342,
  217, 344,
  217, 345,
  217, 347,
  217, 348,
  217, 350,
  217, 353,
  217, 356,
  217, 357,
  217, 358,
  217, 360,
  217, 364,
  217, 365,
  217, 366,
  217, 372,
  217, 373,
  217, 377,
  217, 378,
  217, 387,
  217, 394,
  217, 395,
  217, 396,
  217, 400,
  217, 403,
  217, 406,
  217, 407,
  217, 409,
  217, 412,
  217, 414,
  217, 416,
  217, 417,
  217, 418,
  217, 420,
  217, 422,
  217, 424,
  217, 427,
  217, 430,
  217, 431,
  217, 434,
  217, 441,
  217, 442,
  217, 443,
  217, 444,
  217, 445,
  217, 447,
  217, 450,
  217, 451,
  217, 454,
  217, 456,
  217, 457,
  217, 458,
  217, 461,
  217, 464,
  217, 465,
  217, 466,
  217, 467,
  217, 469,
  217, 471,
  217, 473,
  217, 475,
  217, 477,
  217, 480,
  217, 483,
  217, 484,
  217, 486,
  217, 489,
  217, 490,
  217, 492,
  217, 493,
  217, 494,
  217, 495,
  217, 500,
  218, 219,
  218, 220,
  218, 221,
  218, 222,
  218, 226,
  218, 228,
  218, 229,
  218, 233,
  218, 237,
  218, 239,
  218, 240,
  218, 242,
  218, 245,
  218, 246,
  218, 249,
  218, 251,
  218, 252,
  218, 254,
  218, 255,
  218, 257,
  218, 258,
  218, 259,
  218, 261,
  218, 262,
  218, 263,
  218, 269,
  218, 271,
  218, 276,
  218, 278,
  218, 281,
  218, 282,
  218, 283,
  218, 285,
  218, 289,
  218, 293,
  218, 295,
  218, 299,
  218, 300,
  218, 301,
  218, 302,
  218, 305,
  218, 306,
  218, 307,
  218, 310,
  218, 313,
  218, 314,
  218, 319,
  218, 321,
  218, 323,
  218, 324,
  218, 325,
  218, 326,
  218, 328,
  218, 331,
  218, 332,
  218, 336,
  218, 341,
  218, 343,
  218, 344,
  218, 346,
  218, 347,
  218, 349,
  218, 357,
  218, 359,
  218, 361,
  218, 362,
  218, 364,
  218, 369,
  218, 372,
  218, 373,
  218, 374,
  218, 375,
  218, 376,
  218, 378,
  218, 381,
  218, 382,
  218, 383,
  218, 384,
  218, 391,
  218, 393,
  218, 395,
  218, 396,
  218, 397,
  218, 399,
  218, 400,
  218, 401,
  218, 403,
  218, 404,
  218, 406,
  218, 407,
  218, 408,
  218, 409,
  218, 410,
  218, 411,
  218, 413,
  218, 414,
  218, 419,
  218, 422,
  218, 423,
  218, 424,
  218, 426,
  218, 427,
  218, 428,
  218, 432,
  218, 433,
  218, 434,
  218, 435,
  218, 436,
  218, 438,
  218, 439,
  218, 443,
  218, 444,
  218, 445,
  218, 446,
  218, 455,
  218, 457,
  218, 458,
  218, 460,
  218, 463,
  218, 464,
  218, 465,
  218, 467,
  218, 470,
  218, 471,
  218, 473,
  218, 474,
  218, 475,
  218, 476,
  218, 477,
  218, 478,
  218, 480,
  218, 481,
  218, 482,
  218, 486,
  218, 487,
  218, 490,
  218, 492,
  218, 493,
  218, 494,
  218, 496,
  219, 221,
  219, 223,
  219, 225,
  219, 227,
  219, 230,
  219, 232,
  219, 234,
  219, 236,
  219, 237,
  219, 239,
  219, 242,
  219, 246,
  219, 247,
  219, 248,
  219, 249,
  219, 250,
  219, 251,
  219, 252,
  219, 253,
  219, 256,
  219, 257,
  219, 261,
  219, 266,
  219, 268,
  219, 269,
  219, 270,
  219, 272,
  219, 274,
  219, 275,
  219, 277,
  219, 278,
  219, 281,
  219, 282,
  219, 287,
  219, 289,
  219, 290,
  219, 291,
  219, 292,
  219, 294,
  219, 296,
  219, 297,
  219, 299,
  219, 301,
  219, 303,
  219, 306,
  219, 309,
  219, 315,
  219, 320,
  219, 321,
  219, 323,
  219, 329,
  219, 331,
  219, 332,
  219, 333,
  219, 336,
  219, 337,
  219, 339,
  219, 340,
  219, 341,
  219, 343,
  219, 345,
  219, 346,
  219, 347,
  219, 348,
  219, 349,
  219, 350,
  219, 351,
  219, 352,
  219, 355,
  219, 356,
  219, 357,
  219, 358,
  219, 360,
  219, 361,
  219, 364,
  219, 366,
  219, 368,
  219, 371,
  219, 372,
  219, 374,
  219, 375,
  219, 376,
  219, 377,
  219, 379,
  219, 383,
  219, 384,
  219, 385,
  219, 386,
  219, 388,
  219, 389,
  219, 390,
  219, 392,
  219, 397,
  219, 399,
  219, 400,
  219, 402,
  219, 404,
  219, 405,
  219, 406,
  219, 408,
  219, 409,
  219, 410,
  219, 411,
  219, 413,
  219, 414,
  219, 415,
  219, 416,
  219, 423,
  219, 424,
  219, 425,
  219, 427,
  219, 432,
  219, 434,
  219, 436,
  219, 437,
  219, 439,
  219, 440,
  219, 443,
  219, 448,
  219, 449,
  219, 450,
  219, 452,
  219, 454,
  219, 456,
  219, 457,
  219, 461,
  219, 463,
  219, 466,
  219, 469,
  219, 475,
  219, 480,
  219, 481,
  219, 482,
  219, 485,
  219, 487,
  219, 489,
  219, 494,
  219, 496,
  220, 222,
  220, 224,
  220, 226,
  220, 227,
  220, 228,
  220, 230,
  220, 231,
  220, 235,
  220, 237,
  220, 239,
  220, 240,
  220, 242,
  220, 251,
  220, 252,
  220, 255,
  220, 258,
  220, 259,
  220, 266,
  220, 268,
  220, 269,
  220, 277,
  220, 278,
  220, 280,
  220, 281,
  220, 285,
  220, 286,
  220, 289,
  220, 290,
  220, 292,
  220, 293,
  220, 295,
  220, 296,
  220, 298,
  220, 301,
  220, 302,
  220, 304,
  220, 305,
  220, 306,
  220, 309,
  220, 310,
  220, 311,
  220, 313,
  220, 315,
  220, 319,
  220, 323,
  220, 325,
  220, 326,
  220, 327,
  220, 328,
  220, 329,
  220, 331,
  220, 336,
  220, 341,
  220, 343,
  220, 344,
  220, 345,
  220, 348,
  220, 352,
  220, 354,
  220, 355,
  220, 358,
  220, 360,
  220, 365,
  220, 366,
  220, 368,
  220, 369,
  220, 370,
  220, 371,
  220, 373,
  220, 374,
  220, 375,
  220, 378,
  220, 379,
  220, 382,
  220, 383,
  220, 384,
  220, 387,
  220, 388,
  220, 389,
  220, 390,
  220, 392,
  220, 396,
  220, 398,
  220, 401,
  220, 402,
  220, 405,
  220, 406,
  220, 408,
  220, 410,
  220, 411,
  220, 416,
  220, 418,
  220, 419,
  220, 420,
  220, 421,
  220, 422,
  220, 423,
  220, 424,
  220, 429,
  220, 430,
  220, 432,
  220, 438,
  220, 439,
  220, 442,
  220, 445,
  220, 446,
  220, 448,
  220, 450,
  220, 453,
  220, 454,
  220, 455,
  220, 456,
  220, 457,
  220, 460,
  220, 461,
  220, 462,
  220, 464,
  220, 467,
  220, 470,
  220, 477,
  220, 479,
  220, 480,
  220, 481,
  220, 483,
  220, 486,
  220, 487,
  220, 490,
  220, 491,
  220, 493,
  220, 497,
  220, 499,
  220, 500,
  221, 223,
  221, 224,
  221, 225,
  221, 226,
  221, 228,
  221, 233,
  221, 236,
  221, 237,
  221, 238,
  221, 239,
  221, 243,
  221, 245,
  221, 246,
  221, 248,
  221, 251,
  221, 252,
  221, 254,
  221, 255,
  221, 257,
  221, 258,
  221, 261,
  221, 265,
  221, 266,
  221, 267,
  221, 268,
  221, 271,
  221, 273,
  221, 274,
  221, 275,
  221, 276,
  221, 279,
  221, 284,
  221, 285,
  221, 286,
  221, 287,
  221, 293,
  221, 294,
  221, 295,
  221, 296,
  221, 297,
  221, 298,
  221, 303,
  221, 308,
  221, 309,
  221, 311,
  221, 312,
  221, 313,
  221, 314,
  221, 315,
  221, 317,
  221, 318,
  221, 324,
  221, 325,
  221, 326,
  221, 327,
  221, 329,
  221, 330,
  221, 331,
  221, 332,
  221, 333,
  221, 337,
  221, 338,
  221, 344,
  221, 346,
  221, 348,
  221, 351,
  221, 352,
  221, 354,
  221, 355,
  221, 357,
  221, 367,
  221, 368,
  221, 374,
  221, 376,
  221, 377,
  221, 378,
  221, 380,
  221, 381,
  221, 389,
  221, 391,
  221, 393,
  221, 395,
  221, 399,
  221, 400,
  221, 401,
  221, 404,
  221, 405,
  221, 408,
  221, 411,
  221, 412,
  221, 413,
  221, 414,
  221, 415,
  221, 416,
  221, 419,
  221, 420,
  221, 421,
  221, 423,
  221, 425,
  221, 429,
  221, 430,
  221, 432,
  221, 433,
  221, 434,
  221, 438,
  221, 441,
  221, 443,
  221, 447,
  221, 449,
  221, 450,
  221, 453,
  221, 454,
  221, 455,
  221, 458,
  221, 460,
  221, 461,
  221, 462,
  221, 463,
  221, 464,
  221, 465,
  221, 466,
  221, 467,
  221, 469,
  221, 470,
  221, 472,
  221, 473,
  221, 476,
  221, 477,
  221, 478,
  221, 480,
  221, 482,
  221, 484,
  221, 489,
  221, 495,
  221, 499,
  222, 223,
  222, 224,
  222, 225,
  222, 227,
  222, 228,
  222, 230,
  222, 231,
  222, 233,
  222, 234,
  222, 235,
  222, 238,
  222, 241,
  222, 245,
  222, 247,
  222, 249,
  222, 251,
  222, 256,
  222, 258,
  222, 259,
  222, 261,
  222, 265,
  222, 266,
  222, 267,
  222, 268,
  222, 272,
  222, 276,
  222, 277,
  222, 279,
  222, 281,
  222, 284,
  222, 285,
  222, 287,
  222, 289,
  222, 292,
  222, 294,
  222, 296,
  222, 297,
  222, 300,
  222, 303,
  222, 304,
  222, 307,
  222, 310,
  222, 311,
  222, 312,
  222, 315,
  222, 318,
  222, 319,
  222, 320,
  222, 323,
  222, 324,
  222, 325,
  222, 326,
  222, 331,
  222, 332,
  222, 334,
  222, 335,
  222, 336,
  222, 340,
  222, 342,
  222, 343,
  222, 344,
  222, 345,
  222, 347,
  222, 348,
  222, 349,
  222, 350,
  222, 351,
  222, 352,
  222, 354,
  222, 355,
  222, 356,
  222, 357,
  222, 358,
  222, 360,
  222, 362,
  222, 363,
  222, 364,
  222, 366,
  222, 367,
  222, 369,
  222, 371,
  222, 372,
  222, 374,
  222, 375,
  222, 377,
  222, 378,
  222, 379,
  222, 380,
  222, 382,
  222, 383,
  222, 385,
  222, 388,
  222, 389,
  222, 390,
  222, 392,
  222, 393,
  222, 397,
  222, 398,
  222, 399,
  222, 400,
  222, 401,
  222, 402,
  222, 403,
  222, 405,
  222, 406,
  222, 407,
  222, 409,
  222, 410,
  222, 413,
  222, 417,
  222, 418,
  222, 419,
  222, 420,
  222, 421,
  222, 422,
  222, 423,
  222, 426,
  222, 431,
  222, 432,
  222, 433,
  222, 437,
  222, 441,
  222, 443,
  222, 448,
  222, 449,
  222, 451,
  222, 453,
  222, 454,
  222, 455,
  222, 456,
  222, 457,
  222, 458,
  222, 462,
  222, 463,
  222, 464,
  222, 465,
  222, 466,
  222, 467,
  222, 468,
  222, 469,
  222, 470,
  222, 471,
  222, 474,
  222, 479,
  222, 482,
  222, 484,
  222, 485,
  222, 486,
  222, 487,
  222, 489,
  222, 490,
  222, 491,
  222, 492,
  222, 493,
  222, 494,
  222, 495,
  222, 496,
  222, 497,
  222, 498,
  222, 499,
  223, 225,
  223, 226,
  223, 227,
  223, 229,
  223, 232,
  223, 233,
  223, 236,
  223, 239,
  223, 241,
  223, 242,
  223, 243,
  223, 244,
  223, 245,
  223, 250,
  223, 251,
  223, 252,
  223, 255,
  223, 256,
  223, 260,
  223, 262,
  223, 264,
  223, 267,
  223, 268,
  223, 275,
  223, 276,
  223, 277,
  223, 279,
  223, 280,
  223, 282,
  223, 287,
  223, 288,
  223, 289,
  223, 291,
  223, 293,
  223, 297,
  223, 299,
  223, 301,
  223, 302,
  223, 305,
  223, 306,
  223, 307,
  223, 308,
  223, 313,
  223, 315,
  223, 317,
  223, 318,
  223, 320,
  223, 324,
  223, 325,
  223, 326,
  223, 328,
  223, 329,
  223, 331,
  223, 333,
  223, 334,
  223, 335,
  223, 336,
  223, 340,
  223, 342,
  223, 343,
  223, 344,
  223, 345,
  223, 347,
  223, 350,
  223, 351,
  223, 353,
  223, 354,
  223, 357,
  223, 358,
  223, 359,
  223, 362,
  223, 364,
  223, 368,
  223, 370,
  223, 372,
  223, 373,
  223, 374,
  223, 376,
  223, 377,
  223, 379,
  223, 382,
  223, 384,
  223, 385,
  223, 387,
  223, 388,
  223, 390,
  223, 392,
  223, 394,
  223, 397,
  223, 399,
  223, 404,
  223, 406,
  223, 407,
  223, 410,
  223, 411,
  223, 412,
  223, 413,
  223, 414,
  223, 415,
  223, 416,
  223, 417,
  223, 421,
  223, 422,
  223, 423,
  223, 424,
  223, 427,
  223, 428,
  223, 430,
  223, 432,
  223, 436,
  223, 437,
  223, 438,
  223, 442,
  223, 443,
  223, 447,
  223, 448,
  223, 451,
  223, 452,
  223, 455,
  223, 456,
  223, 458,
  223, 460,
  223, 462,
  223, 464,
  223, 468,
  223, 469,
  223, 473,
  223, 476,
  223, 477,
  223, 478,
  223, 480,
  223, 482,
  223, 483,
  223, 485,
  223, 488,
  223, 490,
  223, 492,
  223, 494,
  223, 496,
  223, 498,
  223, 499,
  223, 500,
  224, 225,
  224, 228,
  224, 229,
  224, 231,
  224, 232,
  224, 234,
  224, 235,
  224, 240,
  224, 242,
  224, 243,
  224, 249,
  224, 250,
  224, 251,
  224, 252,
  224, 254,
  224, 255,
  224, 256,
  224, 258,
  224, 260,
  224, 262,
  224, 263,
  224, 264,
  224, 265,
  224, 268,
  224, 269,
  224, 270,
  224, 272,
  224, 275,
  224, 276,
  224, 278,
  224, 282,
  224, 283,
  224, 284,
  224, 293,
  224, 294,
  224, 295,
  224, 296,
  224, 297,
  224, 298,
  224, 301,
  224, 303,
  224, 306,
  224, 309,
  224, 312,
  224, 316,
  224, 318,
  224, 319,
  224, 320,
  224, 321,
  224, 323,
  224, 326,
  224, 327,
  224, 328,
  224, 331,
  224, 333,
  224, 334,
  224, 336,
  224, 337,
  224, 338,
  224, 340,
  224, 341,
  224, 343,
  224, 346,
  224, 348,
  224, 349,
  224, 351,
  224, 354,
  224, 355,
  224, 359,
  224, 360,
  224, 363,
  224, 366,
  224, 368,
  224, 371,
  224, 378,
  224, 381,
  224, 382,
  224, 383,
  224, 384,
  224, 387,
  224, 388,
  224, 389,
  224, 390,
  224, 391,
  224, 393,
  224, 395,
  224, 396,
  224, 398,
  224, 401,
  224, 402,
  224, 406,
  224, 409,
  224, 410,
  224, 412,
  224, 413,
  224, 419,
  224, 424,
  224, 427,
  224, 428,
  224, 430,
  224, 431,
  224, 432,
  224, 434,
  224, 435,
  224, 436,
  224, 437,
  224, 439,
  224, 440,
  224, 441,
  224, 446,
  224, 447,
  224, 450,
  224, 454,
  224, 455,
  224, 456,
  224, 457,
  224, 458,
  224, 460,
  224, 462,
  224, 465,
  224, 467,
  224, 468,
  224, 471,
  224, 472,
  224, 473,
  224, 474,
  224, 479,
  224, 483,
  224, 484,
  224, 486,
  224, 487,
  224, 489,
  224, 490,
  224, 492,
  224, 495,
  224, 497,
  224, 499,
  225, 226,
  225, 228,
  225, 229,
  225, 230,
  225, 231,
  225, 233,
  225, 237,
  225, 239,
  225, 243,
  225, 246,
  225, 252,
  225, 253,
  225, 254,
  225, 256,
  225, 257,
  225, 258,
  225, 260,
  225, 261,
  225, 262,
  225, 263,
  225, 265,
  225, 268,
  225, 270,
  225, 273,
  225, 277,
  225, 278,
  225, 280,
  225, 281,
  225, 283,
  225, 284,
  225, 285,
  225, 286,
  225, 291,
  225, 293,
  225, 294,
  225, 295,
  225, 296,
  225, 300,
  225, 302,
  225, 303,
  225, 305,
  225, 307,
  225, 308,
  225, 309,
  225, 313,
  225, 315,
  225, 316,
  225, 317,
  225, 318,
  225, 325,
  225, 326,
  225, 328,
  225, 329,
  225, 331,
  225, 332,
  225, 334,
  225, 336,
  225, 340,
  225, 341,
  225, 342,
  225, 343,
  225, 345,
  225, 346,
  225, 348,
  225, 352,
  225, 355,
  225, 357,
  225, 359,
  225, 362,
  225, 363,
  225, 364,
  225, 365,
  225, 366,
  225, 369,
  225, 371,
  225, 372,
  225, 374,
  225, 376,
  225, 377,
  225, 378,
  225, 379,
  225, 380,
  225, 381,
  225, 382,
  225, 384,
  225, 387,
  225, 388,
  225, 390,
  225, 391,
  225, 393,
  225, 394,
  225, 395,
  225, 397,
  225, 398,
  225, 399,
  225, 402,
  225, 403,
  225, 404,
  225, 408,
  225, 411,
  225, 412,
  225, 416,
  225, 417,
  225, 418,
  225, 420,
  225, 421,
  225, 424,
  225, 425,
  225, 426,
  225, 427,
  225, 429,
  225, 430,
  225, 431,
  225, 432,
  225, 434,
  225, 435,
  225, 436,
  225, 439,
  225, 441,
  225, 442,
  225, 443,
  225, 446,
  225, 447,
  225, 448,
  225, 449,
  225, 453,
  225, 456,
  225, 457,
  225, 458,
  225, 460,
  225, 464,
  225, 466,
  225, 467,
  225, 468,
  225, 472,
  225, 474,
  225, 475,
  225, 477,
  225, 478,
  225, 479,
  225, 481,
  225, 484,
  225, 485,
  225, 486,
  225, 489,
  225, 491,
  225, 492,
  225, 493,
  225, 494,
  225, 497,
  226, 228,
  226, 229,
  226, 232,
  226, 236,
  226, 242,
  226, 245,
  226, 250,
  226, 252,
  226, 255,
  226, 258,
  226, 259,
  226, 262,
  226, 263,
  226, 267,
  226, 268,
  226, 269,
  226, 270,
  226, 271,
  226, 273,
  226, 274,
  226, 275,
  226, 276,
  226, 277,
  226, 278,
  226, 280,
  226, 281,
  226, 285,
  226, 287,
  226, 288,
  226, 289,
  226, 294,
  226, 295,
  226, 296,
  226, 297,
  226, 298,
  226, 299,
  226, 300,
  226, 301,
  226, 304,
  226, 305,
  226, 306,
  226, 308,
  226, 309,
  226, 312,
  226, 316,
  226, 317,
  226, 318,
  226, 320,
  226, 321,
  226, 326,
  226, 327,
  226, 328,
  226, 331,
  226, 334,
  226, 336,
  226, 338,
  226, 342,
  226, 343,
  226, 345,
  226, 346,
  226, 347,
  226, 348,
  226, 350,
  226, 351,
  226, 353,
  226, 356,
  226, 357,
  226, 359,
  226, 360,
  226, 361,
  226, 362,
  226, 364,
  226, 365,
  226, 367,
  226, 368,
  226, 370,
  226, 371,
  226, 372,
  226, 373,
  226, 374,
  226, 376,
  226, 378,
  226, 379,
  226, 383,
  226, 384,
  226, 385,
  226, 388,
  226, 389,
  226, 390,
  226, 393,
  226, 398,
  226, 399,
  226, 402,
  226, 403,
  226, 406,
  226, 410,
  226, 413,
  226, 414,
  226, 416,
  226, 418,
  226, 422,
  226, 425,
  226, 429,
  226, 431,
  226, 433,
  226, 434,
  226, 436,
  226, 439,
  226, 442,
  226, 444,
  226, 445,
  226, 449,
  226, 450,
  226, 453,
  226, 454,
  226, 456,
  226, 458,
  226, 461,
  226, 463,
  226, 464,
  226, 465,
  226, 468,
  226, 469,
  226, 470,
  226, 472,
  226, 473,
  226, 475,
  226, 477,
  226, 481,
  226, 484,
  226, 488,
  226, 491,
  226, 492,
  226, 494,
  226, 495,
  226, 496,
  226, 499,
  226, 500,
  227, 231,
  227, 233,
  227, 236,
  227, 237,
  227, 239,
  227, 241,
  227, 243,
  227, 246,
  227, 248,
  227, 249,
  227, 251,
  227, 252,
  227, 254,
  227, 255,
  227, 257,
  227, 259,
  227, 260,
  227, 261,
  227, 267,
  227, 268,
  227, 272,
  227, 273,
  227, 277,
  227, 280,
  227, 282,
  227, 286,
  227, 287,
  227, 289,
  227, 291,
  227, 292,
  227, 298,
  227, 301,
  227, 302,
  227, 304,
  227, 305,
  227, 308,
  227, 310,
  227, 312,
  227, 313,
  227, 316,
  227, 318,
  227, 319,
  227, 321,
  227, 322,
  227, 323,
  227, 328,
  227, 330,
  227, 331,
  227, 333,
  227, 336,
  227, 339,
  227, 340,
  227, 342,
  227, 347,
  227, 351,
  227, 354,
  227, 355,
  227, 357,
  227, 361,
  227, 365,
  227, 367,
  227, 370,
  227, 371,
  227, 372,
  227, 373,
  227, 374,
  227, 377,
  227, 380,
  227, 381,
  227, 382,
  227, 384,
  227, 386,
  227, 387,
  227, 389,
  227, 390,
  227, 391,
  227, 393,
  227, 394,
  227, 395,
  227, 397,
  227, 399,
  227, 400,
  227, 402,
  227, 404,
  227, 407,
  227, 408,
  227, 410,
  227, 412,
  227, 413,
  227, 414,
  227, 418,
  227, 419,
  227, 420,
  227, 421,
  227, 425,
  227, 426,
  227, 428,
  227, 429,
  227, 431,
  227, 432,
  227, 433,
  227, 435,
  227, 436,
  227, 438,
  227, 439,
  227, 441,
  227, 443,
  227, 444,
  227, 445,
  227, 447,
  227, 453,
  227, 454,
  227, 455,
  227, 457,
  227, 458,
  227, 461,
  227, 462,
  227, 463,
  227, 465,
  227, 468,
  227, 470,
  227, 473,
  227, 474,
  227, 477,
  227, 479,
  227, 480,
  227, 482,
  227, 483,
  227, 484,
  227, 489,
  227, 490,
  227, 491,
  227, 494,
  227, 496,
  228, 235,
  228, 237,
  228, 238,
  228, 239,
  228, 241,
  228, 243,
  228, 244,
  228, 245,
  228, 246,
  228, 248,
  228, 250,
  228, 251,
  228, 253,
  228, 256,
  228, 257,
  228, 260,
  228, 263,
  228, 266,
  228, 267,
  228, 270,
  228, 272,
  228, 274,
  228, 275,
  228, 279,
  228, 280,
  228, 281,
  228, 282,
  228, 292,
  228, 295,
  228, 296,
  228, 298,
  228, 299,
  228, 300,
  228, 301,
  228, 303,
  228, 304,
  228, 306,
  228, 309,
  228, 310,
  228, 313,
  228, 314,
  228, 316,
  228, 319,
  228, 321,
  228, 322,
  228, 324,
  228, 329,
  228, 330,
  228, 335,
  228, 336,
  228, 337,
  228, 341,
  228, 342,
  228, 344,
  228, 347,
  228, 348,
  228, 350,
  228, 351,
  228, 352,
  228, 354,
  228, 355,
  228, 357,
  228, 358,
  228, 359,
  228, 360,
  228, 363,
  228, 364,
  228, 366,
  228, 368,
  228, 370,
  228, 371,
  228, 374,
  228, 376,
  228, 378,
  228, 379,
  228, 380,
  228, 381,
  228, 382,
  228, 383,
  228, 385,
  228, 386,
  228, 388,
  228, 391,
  228, 392,
  228, 393,
  228, 394,
  228, 395,
  228, 400,
  228, 401,
  228, 404,
  228, 405,
  228, 406,
  228, 407,
  228, 409,
  228, 410,
  228, 411,
  228, 415,
  228, 418,
  228, 421,
  228, 425,
  228, 426,
  228, 427,
  228, 428,
  228, 429,
  228, 430,
  228, 431,
  228, 433,
  228, 434,
  228, 437,
  228, 440,
  228, 441,
  228, 444,
  228, 446,
  228, 448,
  228, 450,
  228, 452,
  228, 454,
  228, 455,
  228, 456,
  228, 458,
  228, 459,
  228, 460,
  228, 462,
  228, 463,
  228, 464,
  228, 465,
  228, 468,
  228, 472,
  228, 474,
  228, 478,
  228, 479,
  228, 480,
  228, 481,
  228, 483,
  228, 485,
  228, 488,
  228, 489,
  228, 492,
  228, 495,
  228, 496,
  228, 499,
  229, 231,
  229, 232,
  229, 234,
  229, 235,
  229, 238,
  229, 240,
  229, 241,
  229, 245,
  229, 246,
  229, 249,
  229, 250,
  229, 251,
  229, 253,
  229, 255,
  229, 256,
  229, 257,
  229, 258,
  229, 260,
  229, 264,
  229, 265,
  229, 267,
  229, 268,
  229, 269,
  229, 272,
  229, 276,
  229, 277,
  229, 278,
  229, 280,
  229, 282,
  229, 284,
  229, 286,
  229, 287,
  229, 291,
  229, 292,
  229, 297,
  229, 299,
  229, 300,
  229, 301,
  229, 302,
  229, 303,
  229, 306,
  229, 308,
  229, 309,
  229, 310,
  229, 311,
  229, 312,
  229, 314,
  229, 316,
  229, 319,
  229, 323,
  229, 324,
  229, 328,
  229, 329,
  229, 330,
  229, 334,
  229, 335,
  229, 337,
  229, 338,
  229, 340,
  229, 341,
  229, 342,
  229, 343,
  229, 344,
  229, 352,
  229, 354,
  229, 358,
  229, 360,
  229, 362,
  229, 363,
  229, 365,
  229, 367,
  229, 371,
  229, 374,
  229, 377,
  229, 378,
  229, 379,
  229, 382,
  229, 384,
  229, 386,
  229, 388,
  229, 390,
  229, 391,
  229, 395,
  229, 396,
  229, 399,
  229, 400,
  229, 401,
  229, 404,
  229, 405,
  229, 406,
  229, 407,
  229, 409,
  229, 410,
  229, 412,
  229, 413,
  229, 416,
  229, 417,
  229, 424,
  229, 428,
  229, 430,
  229, 431,
  229, 432,
  229, 433,
  229, 434,
  229, 436,
  229, 438,
  229, 439,
  229, 441,
  229, 442,
  229, 445,
  229, 449,
  229, 451,
  229, 452,
  229, 459,
  229, 460,
  229, 462,
  229, 464,
  229, 465,
  229, 469,
  229, 474,
  229, 475,
  229, 476,
  229, 479,
  229, 481,
  229, 485,
  229, 489,
  229, 492,
  229, 493,
  229, 495,
  229, 497,
  229, 499,
  230, 233,
  230, 235,
  230, 236,
  230, 239,
  230, 241,
  230, 242,
  230, 246,
  230, 247,
  230, 249,
  230, 251,
  230, 252,
  230, 253,
  230, 255,
  230, 257,
  230, 258,
  230, 263,
  230, 265,
  230, 266,
  230, 268,
  230, 269,
  230, 270,
  230, 274,
  230, 276,
  230, 277,
  230, 279,
  230, 280,
  230, 281,
  230, 282,
  230, 286,
  230, 287,
  230, 288,
  230, 292,
  230, 294,
  230, 295,
  230, 296,
  230, 297,
  230, 299,
  230, 302,
  230, 305,
  230, 306,
  230, 308,
  230, 311,
  230, 317,
  230, 319,
  230, 320,
  230, 321,
  230, 322,
  230, 324,
  230, 325,
  230, 326,
  230, 327,
  230, 329,
  230, 330,
  230, 331,
  230, 332,
  230, 333,
  230, 335,
  230, 344,
  230, 345,
  230, 347,
  230, 349,
  230, 352,
  230, 355,
  230, 356,
  230, 359,
  230, 360,
  230, 361,
  230, 363,
  230, 364,
  230, 365,
  230, 366,
  230, 368,
  230, 370,
  230, 371,
  230, 372,
  230, 373,
  230, 374,
  230, 376,
  230, 377,
  230, 378,
  230, 380,
  230, 381,
  230, 384,
  230, 386,
  230, 387,
  230, 389,
  230, 390,
  230, 398,
  230, 401,
  230, 404,
  230, 408,
  230, 413,
  230, 415,
  230, 416,
  230, 420,
  230, 421,
  230, 424,
  230, 426,
  230, 428,
  230, 429,
  230, 434,
  230, 435,
  230, 436,
  230, 438,
  230, 439,
  230, 440,
  230, 441,
  230, 442,
  230, 447,
  230, 450,
  230, 455,
  230, 457,
  230, 458,
  230, 459,
  230, 462,
  230, 463,
  230, 464,
  230, 465,
  230, 468,
  230, 470,
  230, 471,
  230, 474,
  230, 475,
  230, 480,
  230, 481,
  230, 484,
  230, 486,
  230, 488,
  230, 490,
  230, 492,
  230, 496,
  230, 498,
  230, 500,
  231, 235,
  231, 236,
  231, 237,
  231, 239,
  231, 240,
  231, 244,
  231, 246,
  231, 247,
  231, 248,
  231, 249,
  231, 250,
  231, 251,
  231, 254,
  231, 257,
  231, 258,
  231, 260,
  231, 263,
  231, 264,
  231, 267,
  231, 269,
  231, 270,
  231, 271,
  231, 273,
  231, 275,
  231, 276,
  231, 277,
  231, 281,
  231, 282,
  231, 283,
  231, 284,
  231, 287,
  231, 291,
  231, 292,
  231, 293,
  231, 298,
  231, 304,
  231, 305,
  231, 307,
  231, 308,
  231, 310,
  231, 313,
  231, 314,
  231, 315,
  231, 316,
  231, 317,
  231, 318,
  231, 320,
  231, 323,
  231, 324,
  231, 325,
  231, 328,
  231, 334,
  231, 336,
  231, 337,
  231, 338,
  231, 341,
  231, 342,
  231, 344,
  231, 345,
  231, 347,
  231, 349,
  231, 352,
  231, 356,
  231, 357,
  231, 358,
  231, 359,
  231, 360,
  231, 364,
  231, 369,
  231, 372,
  231, 376,
  231, 377,
  231, 378,
  231, 379,
  231, 383,
  231, 384,
  231, 385,
  231, 386,
  231, 387,
  231, 388,
  231, 389,
  231, 390,
  231, 392,
  231, 394,
  231, 396,
  231, 397,
  231, 398,
  231, 401,
  231, 402,
  231, 403,
  231, 404,
  231, 406,
  231, 407,
  231, 409,
  231, 411,
  231, 413,
  231, 417,
  231, 421,
  231, 422,
  231, 424,
  231, 425,
  231, 429,
  231, 430,
  231, 434,
  231, 435,
  231, 436,
  231, 437,
  231, 438,
  231, 441,
  231, 442,
  231, 443,
  231, 447,
  231, 449,
  231, 453,
  231, 456,
  231, 457,
  231, 458,
  231, 460,
  231, 467,
  231, 468,
  231, 469,
  231, 470,
  231, 471,
  231, 473,
  231, 477,
  231, 478,
  231, 479,
  231, 480,
  231, 485,
  231, 489,
  231, 493,
  231, 494,
  231, 496,
  231, 498,
  231, 499,
  232, 233,
  232, 237,
  232, 238,
  232, 240,
  232, 242,
  232, 249,
  232, 250,
  232, 252,
  232, 253,
  232, 254,
  232, 255,
  232, 256,
  232, 257,
  232, 258,
  232, 259,
  232, 261,
  232, 264,
  232, 269,
  232, 270,
  232, 271,
  232, 272,
  232, 273,
  232, 275,
  232, 277,
  232, 280,
  232, 281,
  232, 285,
  232, 286,
  232, 289,
  232, 290,
  232, 292,
  232, 294,
  232, 300,
  232, 303,
  232, 305,
  232, 306,
  232, 308,
  232, 314,
  232, 315,
  232, 318,
  232, 319,
  232, 321,
  232, 323,
  232, 324,
  232, 325,
  232, 326,
  232, 327,
  232, 329,
  232, 331,
  232, 333,
  232, 335,
  232, 337,
  232, 340,
  232, 342,
  232, 345,
  232, 347,
  232, 348,
  232, 349,
  232, 350,
  232, 351,
  232, 353,
  232, 355,
  232, 358,
  232, 361,
  232, 362,
  232, 365,
  232, 368,
  232, 369,
  232, 370,
  232, 371,
  232, 373,
  232, 374,
  232, 375,
  232, 377,
  232, 379,
  232, 382,
  232, 388,
  232, 389,
  232, 390,
  232, 391,
  232, 395,
  232, 396,
  232, 397,
  232, 398,
  232, 400,
  232, 401,
  232, 402,
  232, 405,
  232, 406,
  232, 407,
  232, 411,
  232, 413,
  232, 414,
  232, 416,
  232, 418,
  232, 423,
  232, 424,
  232, 425,
  232, 426,
  232, 429,
  232, 430,
  232, 434,
  232, 435,
  232, 437,
  232, 439,
  232, 440,
  232, 441,
  232, 442,
  232, 443,
  232, 444,
  232, 448,
  232, 449,
  232, 452,
  232, 455,
  232, 456,
  232, 457,
  232, 458,
  232, 460,
  232, 462,
  232, 463,
  232, 465,
  232, 466,
  232, 467,
  232, 469,
  232, 471,
  232, 476,
  232, 480,
  232, 482,
  232, 483,
  232, 484,
  232, 489,
  232, 490,
  232, 491,
  232, 492,
  232, 493,
  232, 494,
  232, 499,
  233, 235,
  233, 237,
  233, 239,
  233, 242,
  233, 243,
  233, 248,
  233, 249,
  233, 250,
  233, 252,
  233, 255,
  233, 256,
  233, 257,
  233, 258,
  233, 259,
  233, 262,
  233, 264,
  233, 265,
  233, 266,
  233, 267,
  233, 269,
  233, 270,
  233, 272,
  233, 274,
  233, 275,
  233, 276,
  233, 280,
  233, 281,
  233, 282,
  233, 283,
  233, 284,
  233, 285,
  233, 286,
  233, 289,
  233, 299,
  233, 301,
  233, 303,
  233, 305,
  233, 306,
  233, 310,
  233, 315,
  233, 316,
  233, 320,
  233, 321,
  233, 322,
  233, 323,
  233, 324,
  233, 325,
  233, 327,
  233, 329,
  233, 332,
  233, 335,
  233, 336,
  233, 337,
  233, 339,
  233, 340,
  233, 341,
  233, 342,
  233, 343,
  233, 345,
  233, 348,
  233, 349,
  233, 350,
  233, 352,
  233, 355,
  233, 358,
  233, 362,
  233, 364,
  233, 366,
  233, 370,
  233, 371,
  233, 379,
  233, 380,
  233, 382,
  233, 384,
  233, 385,
  233, 386,
  233, 387,
  233, 389,
  233, 390,
  233, 394,
  233, 397,
  233, 398,
  233, 399,
  233, 401,
  233, 403,
  233, 405,
  233, 407,
  233, 411,
  233, 413,
  233, 414,
  233, 415,
  233, 417,
  233, 419,
  233, 425,
  233, 429,
  233, 430,
  233, 435,
  233, 437,
  233, 443,
  233, 444,
  233, 448,
  233, 449,
  233, 450,
  233, 451,
  233, 454,
  233, 455,
  233, 457,
  233, 458,
  233, 460,
  233, 461,
  233, 462,
  233, 464,
  233, 466,
  233, 471,
  233, 474,
  233, 475,
  233, 480,
  233, 481,
  233, 483,
  233, 490,
  233, 491,
  233, 494,
  233, 495,
  234, 237,
  234, 238,
  234, 245,
  234, 247,
  234, 248,
  234, 249,
  234, 250,
  234, 252,
  234, 253,
  234, 256,
  234, 260,
  234, 261,
  234, 262,
  234, 263,
  234, 264,
  234, 265,
  234, 266,
  234, 267,
  234, 271,
  234, 273,
  234, 275,
  234, 276,
  234, 279,
  234, 280,
  234, 281,
  234, 282,
  234, 283,
  234, 284,
  234, 285,
  234, 289,
  234, 290,
  234, 295,
  234, 297,
  234, 299,
  234, 300,
  234, 302,
  234, 305,
  234, 306,
  234, 307,
  234, 312,
  234, 314,
  234, 315,
  234, 318,
  234, 319,
  234, 322,
  234, 324,
  234, 325,
  234, 326,
  234, 327,
  234, 331,
  234, 332,
  234, 333,
  234, 336,
  234, 337,
  234, 338,
  234, 340,
  234, 341,
  234, 343,
  234, 344,
  234, 345,
  234, 346,
  234, 348,
  234, 349,
  234, 350,
  234, 351,
  234, 353,
  234, 354,
  234, 355,
  234, 356,
  234, 360,
  234, 362,
  234, 363,
  234, 366,
  234, 368,
  234, 369,
  234, 370,
  234, 373,
  234, 375,
  234, 376,
  234, 381,
  234, 386,
  234, 388,
  234, 389,
  234, 392,
  234, 395,
  234, 396,
  234, 397,
  234, 398,
  234, 399,
  234, 403,
  234, 405,
  234, 409,
  234, 411,
  234, 416,
  234, 417,
  234, 419,
  234, 420,
  234, 422,
  234, 426,
  234, 427,
  234, 428,
  234, 429,
  234, 430,
  234, 431,
  234, 432,
  234, 434,
  234, 435,
  234, 437,
  234, 443,
  234, 448,
  234, 449,
  234, 452,
  234, 453,
  234, 454,
  234, 456,
  234, 457,
  234, 459,
  234, 461,
  234, 466,
  234, 467,
  234, 468,
  234, 469,
  234, 470,
  234, 471,
  234, 472,
  234, 473,
  234, 474,
  234, 477,
  234, 478,
  234, 480,
  234, 482,
  234, 483,
  234, 484,
  234, 485,
  234, 486,
  234, 487,
  234, 488,
  234, 491,
  234, 493,
  234, 496,
  234, 498,
  234, 499,
  234, 500,
  235, 237,
  235, 241,
  235, 242,
  235, 244,
  235, 246,
  235, 248,
  235, 254,
  235, 255,
  235, 258,
  235, 259,
  235, 260,
  235, 262,
  235, 263,
  235, 264,
  235, 266,
  235, 267,
  235, 269,
  235, 270,
  235, 271,
  235, 272,
  235, 275,
  235, 276,
  235, 278,
  235, 280,
  235, 281,
  235, 282,
  235, 283,
  235, 284,
  235, 287,
  235, 288,
  235, 294,
  235, 295,
  235, 296,
  235, 297,
  235, 299,
  235, 302,
  235, 303,
  235, 306,
  235, 308,
  235, 309,
  235, 310,
  235, 312,
  235, 313,
  235, 314,
  235, 315,
  235, 316,
  235, 317,
  235, 318,
  235, 322,
  235, 323,
  235, 327,
  235, 328,
  235, 329,
  235, 331,
  235, 332,
  235, 333,
  235, 335,
  235, 336,
  235, 338,
  235, 340,
  235, 342,
  235, 343,
  235, 345,
  235, 346,
  235, 348,
  235, 351,
  235, 352,
  235, 353,
  235, 355,
  235, 356,
  235, 359,
  235, 362,
  235, 364,
  235, 365,
  235, 366,
  235, 367,
  235, 369,
  235, 370,
  235, 371,
  235, 372,
  235, 373,
  235, 375,
  235, 377,
  235, 378,
  235, 379,
  235, 381,
  235, 382,
  235, 383,
  235, 384,
  235, 385,
  235, 387,
  235, 388,
  235, 392,
  235, 394,
  235, 395,
  235, 397,
  235, 399,
  235, 401,
  235, 403,
  235, 404,
  235, 405,
  235, 406,
  235, 409,
  235, 412,
  235, 413,
  235, 414,
  235, 416,
  235, 418,
  235, 420,
  235, 424,
  235, 427,
  235, 428,
  235, 429,
  235, 430,
  235, 431,
  235, 432,
  235, 435,
  235, 436,
  235, 439,
  235, 442,
  235, 443,
  235, 447,
  235, 448,
  235, 449,
  235, 450,
  235, 451,
  235, 452,
  235, 453,
  235, 454,
  235, 456,
  235, 458,
  235, 464,
  235, 465,
  235, 466,
  235, 467,
  235, 470,
  235, 471,
  235, 473,
  235, 477,
  235, 479,
  235, 482,
  235, 483,
  235, 484,
  235, 485,
  235, 486,
  235, 487,
  235, 488,
  235, 489,
  235, 490,
  235, 492,
  235, 493,
  235, 494,
  235, 497,
  235, 498,
  236, 238,
  236, 243,
  236, 246,
  236, 248,
  236, 249,
  236, 251,
  236, 252,
  236, 253,
  236, 254,
  236, 255,
  236, 257,
  236, 260,
  236, 266,
  236, 269,
  236, 271,
  236, 272,
  236, 275,
  236, 276,
  236, 277,
  236, 279,
  236, 280,
  236, 282,
  236, 293,
  236, 298,
  236, 299,
  236, 302,
  236, 306,
  236, 309,
  236, 310,
  236, 311,
  236, 312,
  236, 313,
  236, 315,
  236, 317,
  236, 318,
  236, 322,
  236, 323,
  236, 325,
  236, 327,
  236, 329,
  236, 330,
  236, 331,
  236, 332,
  236, 333,
  236, 334,
  236, 335,
  236, 336,
  236, 341,
  236, 343,
  236, 347,
  236, 350,
  236, 351,
  236, 354,
  236, 355,
  236, 357,
  236, 358,
  236, 365,
  236, 366,
  236, 368,
  236, 369,
  236, 370,
  236, 371,
  236, 372,
  236, 373,
  236, 375,
  236, 377,
  236, 378,
  236, 382,
  236, 383,
  236, 385,
  236, 387,
  236, 388,
  236, 391,
  236, 392,
  236, 393,
  236, 394,
  236, 396,
  236, 398,
  236, 399,
  236, 401,
  236, 402,
  236, 403,
  236, 404,
  236, 407,
  236, 408,
  236, 412,
  236, 413,
  236, 417,
  236, 420,
  236, 421,
  236, 423,
  236, 426,
  236, 430,
  236, 433,
  236, 439,
  236, 442,
  236, 446,
  236, 448,
  236, 450,
  236, 455,
  236, 457,
  236, 458,
  236, 459,
  236, 460,
  236, 463,
  236, 464,
  236, 465,
  236, 466,
  236, 467,
  236, 470,
  236, 471,
  236, 472,
  236, 474,
  236, 475,
  236, 476,
  236, 477,
  236, 478,
  236, 479,
  236, 480,
  236, 482,
  236, 483,
  236, 485,
  236, 486,
  236, 490,
  236, 492,
  236, 494,
  236, 495,
  236, 497,
  237, 239,
  237, 241,
  237, 242,
  237, 244,
  237, 245,
  237, 246,
  237, 252,
  237, 254,
  237, 256,
  237, 259,
  237, 260,
  237, 263,
  237, 264,
  237, 265,
  237, 274,
  237, 276,
  237, 278,
  237, 280,
  237, 285,
  237, 287,
  237, 290,
  237, 291,
  237, 294,
  237, 296,
  237, 299,
  237, 300,
  237, 301,
  237, 302,
  237, 304,
  237, 307,
  237, 308,
  237, 309,
  237, 311,
  237, 315,
  237, 316,
  237, 318,
  237, 323,
  237, 326,
  237, 331,
  237, 332,
  237, 338,
  237, 339,
  237, 340,
  237, 341,
  237, 342,
  237, 346,
  237, 350,
  237, 352,
  237, 353,
  237, 355,
  237, 356,
  237, 358,
  237, 359,
  237, 360,
  237, 363,
  237, 365,
  237, 367,
  237, 369,
  237, 370,
  237, 371,
  237, 372,
  237, 373,
  237, 376,
  237, 377,
  237, 379,
  237, 381,
  237, 382,
  237, 384,
  237, 386,
  237, 387,
  237, 388,
  237, 390,
  237, 393,
  237, 396,
  237, 398,
  237, 399,
  237, 401,
  237, 404,
  237, 407,
  237, 409,
  237, 410,
  237, 411,
  237, 415,
  237, 418,
  237, 421,
  237, 422,
  237, 425,
  237, 427,
  237, 428,
  237, 430,
  237, 431,
  237, 432,
  237, 433,
  237, 434,
  237, 437,
  237, 439,
  237, 443,
  237, 445,
  237, 446,
  237, 448,
  237, 451,
  237, 453,
  237, 454,
  237, 456,
  237, 459,
  237, 460,
  237, 462,
  237, 465,
  237, 467,
  237, 468,
  237, 472,
  237, 475,
  237, 478,
  237, 479,
  237, 482,
  237, 483,
  237, 484,
  237, 486,
  237, 487,
  237, 490,
  237, 492,
  237, 493,
  237, 495,
  237, 500,
  238, 239,
  238, 241,
  238, 242,
  238, 245,
  238, 246,
  238, 248,
  238, 251,
  238, 253,
  238, 255,
  238, 257,
  238, 261,
  238, 266,
  238, 267,
  238, 268,
  238, 269,
  238, 272,
  238, 273,
  238, 278,
  238, 280,
  238, 283,
  238, 284,
  238, 287,
  238, 289,
  238, 290,
  238, 291,
  238, 293,
  238, 295,
  238, 296,
  238, 297,
  238, 298,
  238, 299,
  238, 300,
  238, 301,
  238, 304,
  238, 305,
  238, 306,
  238, 307,
  238, 309,
  238, 310,
  238, 314,
  238, 318,
  238, 320,
  238, 324,
  238, 326,
  238, 328,
  238, 329,
  238, 331,
  238, 332,
  238, 338,
  238, 339,
  238, 341,
  238, 342,
  238, 345,
  238, 346,
  238, 348,
  238, 354,
  238, 358,
  238, 360,
  238, 364,
  238, 369,
  238, 370,
  238, 371,
  238, 373,
  238, 377,
  238, 384,
  238, 385,
  238, 389,
  238, 393,
  238, 394,
  238, 395,
  238, 397,
  238, 399,
  238, 403,
  238, 404,
  238, 405,
  238, 410,
  238, 412,
  238, 413,
  238, 415,
  238, 417,
  238, 421,
  238, 426,
  238, 427,
  238, 428,
  238, 429,
  238, 431,
  238, 433,
  238, 434,
  238, 435,
  238, 438,
  238, 440,
  238, 442,
  238, 443,
  238, 445,
  238, 446,
  238, 454,
  238, 455,
  238, 456,
  238, 458,
  238, 459,
  238, 461,
  238, 462,
  238, 463,
  238, 465,
  238, 467,
  238, 469,
  238, 470,
  238, 471,
  238, 473,
  238, 475,
  238, 477,
  238, 481,
  238, 483,
  238, 487,
  238, 491,
  238, 492,
  238, 493,
  238, 495,
  238, 499,
  239, 241,
  239, 242,
  239, 246,
  239, 250,
  239, 253,
  239, 254,
  239, 255,
  239, 256,
  239, 258,
  239, 259,
  239, 262,
  239, 263,
  239, 265,
  239, 271,
  239, 274,
  239, 278,
  239, 282,
  239, 283,
  239, 284,
  239, 286,
  239, 287,
  239, 290,
  239, 292,
  239, 295,
  239, 296,
  239, 300,
  239, 301,
  239, 304,
  239, 306,
  239, 307,
  239, 309,
  239, 310,
  239, 311,
  239, 313,
  239, 314,
  239, 315,
  239, 316,
  239, 320,
  239, 321,
  239, 322,
  239, 323,
  239, 324,
  239, 326,
  239, 327,
  239, 329,
  239, 330,
  239, 332,
  239, 334,
  239, 337,
  239, 338,
  239, 340,
  239, 341,
  239, 342,
  239, 343,
  239, 344,
  239, 345,
  239, 346,
  239, 347,
  239, 349,
  239, 352,
  239, 355,
  239, 356,
  239, 360,
  239, 365,
  239, 366,
  239, 368,
  239, 374,
  239, 375,
  239, 379,
  239, 380,
  239, 381,
  239, 382,
  239, 383,
  239, 384,
  239, 386,
  239, 387,
  239, 395,
  239, 397,
  239, 398,
  239, 400,
  239, 401,
  239, 402,
  239, 403,
  239, 405,
  239, 406,
  239, 407,
  239, 411,
  239, 412,
  239, 416,
  239, 419,
  239, 422,
  239, 423,
  239, 425,
  239, 426,
  239, 428,
  239, 429,
  239, 430,
  239, 431,
  239, 432,
  239, 433,
  239, 434,
  239, 435,
  239, 438,
  239, 442,
  239, 443,
  239, 452,
  239, 453,
  239, 454,
  239, 455,
  239, 456,
  239, 458,
  239, 460,
  239, 464,
  239, 465,
  239, 467,
  239, 472,
  239, 474,
  239, 477,
  239, 479,
  239, 481,
  239, 482,
  239, 484,
  239, 485,
  239, 486,
  239, 487,
  239, 489,
  239, 491,
  239, 492,
  239, 494,
  239, 495,
  239, 500,
  240, 246,
  240, 248,
  240, 251,
  240, 253,
  240, 254,
  240, 255,
  240, 258,
  240, 259,
  240, 263,
  240, 266,
  240, 267,
  240, 268,
  240, 269,
  240, 271,
  240, 272,
  240, 273,
  240, 275,
  240, 277,
  240, 278,
  240, 280,
  240, 281,
  240, 282,
  240, 286,
  240, 290,
  240, 291,
  240, 292,
  240, 294,
  240, 295,
  240, 296,
  240, 298,
  240, 303,
  240, 307,
  240, 308,
  240, 309,
  240, 314,
  240, 317,
  240, 318,
  240, 319,
  240, 321,
  240, 322,
  240, 323,
  240, 324,
  240, 325,
  240, 327,
  240, 328,
  240, 330,
  240, 333,
  240, 334,
  240, 335,
  240, 338,
  240, 339,
  240, 342,
  240, 344,
  240, 346,
  240, 347,
  240, 349,
  240, 356,
  240, 357,
  240, 359,
  240, 360,
  240, 363,
  240, 364,
  240, 366,
  240, 368,
  240, 371,
  240, 372,
  240, 374,
  240, 375,
  240, 376,
  240, 380,
  240, 382,
  240, 383,
  240, 385,
  240, 386,
  240, 387,
  240, 388,
  240, 390,
  240, 391,
  240, 392,
  240, 393,
  240, 395,
  240, 398,
  240, 400,
  240, 404,
  240, 406,
  240, 407,
  240, 411,
  240, 413,
  240, 414,
  240, 415,
  240, 416,
  240, 417,
  240, 420,
  240, 423,
  240, 426,
  240, 427,
  240, 429,
  240, 430,
  240, 433,
  240, 440,
  240, 441,
  240, 443,
  240, 446,
  240, 447,
  240, 448,
  240, 449,
  240, 450,
  240, 457,
  240, 458,
  240, 460,
  240, 461,
  240, 462,
  240, 464,
  240, 466,
  240, 467,
  240, 472,
  240, 474,
  240, 480,
  240, 481,
  240, 484,
  240, 487,
  240, 488,
  240, 492,
  240, 493,
  240, 494,
  240, 496,
  240, 497,
  241, 242,
  241, 243,
  241, 244,
  241, 245,
  241, 246,
  241, 249,
  241, 251,
  241, 253,
  241, 255,
  241, 258,
  241, 259,
  241, 264,
  241, 265,
  241, 267,
  241, 269,
  241, 270,
  241, 273,
  241, 274,
  241, 275,
  241, 276,
  241, 278,
  241, 279,
  241, 284,
  241, 285,
  241, 286,
  241, 289,
  241, 290,
  241, 296,
  241, 298,
  241, 299,
  241, 300,
  241, 301,
  241, 302,
  241, 305,
  241, 306,
  241, 307,
  241, 309,
  241, 310,
  241, 312,
  241, 313,
  241, 315,
  241, 316,
  241, 317,
  241, 318,
  241, 322,
  241, 326,
  241, 328,
  241, 329,
  241, 330,
  241, 331,
  241, 333,
  241, 334,
  241, 335,
  241, 336,
  241, 339,
  241, 341,
  241, 342,
  241, 344,
  241, 345,
  241, 350,
  241, 351,
  241, 353,
  241, 354,
  241, 358,
  241, 359,
  241, 361,
  241, 363,
  241, 364,
  241, 367,
  241, 368,
  241, 369,
  241, 371,
  241, 372,
  241, 373,
  241, 377,
  241, 378,
  241, 379,
  241, 382,
  241, 383,
  241, 384,
  241, 387,
  241, 388,
  241, 389,
  241, 390,
  241, 393,
  241, 395,
  241, 398,
  241, 400,
  241, 401,
  241, 403,
  241, 405,
  241, 406,
  241, 407,
  241, 408,
  241, 409,
  241, 412,
  241, 417,
  241, 419,
  241, 420,
  241, 423,
  241, 424,
  241, 425,
  241, 426,
  241, 428,
  241, 431,
  241, 432,
  241, 433,
  241, 434,
  241, 436,
  241, 440,
  241, 442,
  241, 445,
  241, 446,
  241, 447,
  241, 449,
  241, 450,
  241, 451,
  241, 452,
  241, 454,
  241, 456,
  241, 459,
  241, 460,
  241, 462,
  241, 463,
  241, 464,
  241, 465,
  241, 468,
  241, 469,
  241, 470,
  241, 472,
  241, 474,
  241, 477,
  241, 479,
  241, 483,
  241, 484,
  241, 485,
  241, 487,
  241, 488,
  241, 489,
  241, 491,
  241, 495,
  241, 496,
  241, 498,
  242, 243,
  242, 244,
  242, 246,
  242, 248,
  242, 249,
  242, 255,
  242, 262,
  242, 264,
  242, 266,
  242, 267,
  242, 270,
  242, 271,
  242, 272,
  242, 273,
  242, 275,
  242, 277,
  242, 282,
  242, 285,
  242, 287,
  242, 289,
  242, 293,
  242, 294,
  242, 300,
  242, 305,
  242, 306,
  242, 307,
  242, 310,
  242, 312,
  242, 314,
  242, 315,
  242, 316,
  242, 318,
  242, 319,
  242, 321,
  242, 322,
  242, 324,
  242, 325,
  242, 330,
  242, 334,
  242, 338,
  242, 340,
  242, 341,
  242, 343,
  242, 345,
  242, 346,
  242, 347,
  242, 348,
  242, 351,
  242, 354,
  242, 357,
  242, 360,
  242, 361,
  242, 362,
  242, 363,
  242, 365,
  242, 366,
  242, 369,
  242, 370,
  242, 371,
  242, 372,
  242, 373,
  242, 376,
  242, 378,
  242, 379,
  242, 380,
  242, 381,
  242, 383,
  242, 385,
  242, 387,
  242, 388,
  242, 389,
  242, 391,
  242, 396,
  242, 397,
  242, 405,
  242, 408,
  242, 410,
  242, 411,
  242, 413,
  242, 415,
  242, 417,
  242, 418,
  242, 420,
  242, 421,
  242, 422,
  242, 425,
  242, 426,
  242, 428,
  242, 430,
  242, 432,
  242, 433,
  242, 435,
  242, 438,
  242, 439,
  242, 441,
  242, 444,
  242, 447,
  242, 448,
  242, 451,
  242, 452,
  242, 453,
  242, 455,
  242, 457,
  242, 458,
  242, 459,
  242, 460,
  242, 464,
  242, 468,
  242, 469,
  242, 471,
  242, 475,
  242, 476,
  242, 477,
  242, 478,
  242, 480,
  242, 484,
  242, 485,
  242, 486,
  242, 490,
  242, 492,
  242, 493,
  242, 494,
  242, 498,
  242, 500,
  243, 249,
  243, 251,
  243, 253,
  243, 254,
  243, 255,
  243, 256,
  243, 257,
  243, 259,
  243, 260,
  243, 261,
  243, 264,
  243, 266,
  243, 267,
  243, 272,
  243, 276,
  243, 277,
  243, 278,
  243, 280,
  243, 281,
  243, 282,
  243, 285,
  243, 286,
  243, 287,
  243, 290,
  243, 292,
  243, 294,
  243, 296,
  243, 297,
  243, 298,
  243, 299,
  243, 303,
  243, 304,
  243, 306,
  243, 312,
  243, 313,
  243, 314,
  243, 316,
  243, 317,
  243, 319,
  243, 320,
  243, 322,
  243, 324,
  243, 327,
  243, 328,
  243, 330,
  243, 332,
  243, 334,
  243, 338,
  243, 339,
  243, 340,
  243, 341,
  243, 344,
  243, 345,
  243, 346,
  243, 347,
  243, 349,
  243, 350,
  243, 351,
  243, 355,
  243, 356,
  243, 357,
  243, 359,
  243, 360,
  243, 361,
  243, 362,
  243, 363,
  243, 366,
  243, 371,
  243, 372,
  243, 374,
  243, 378,
  243, 381,
  243, 382,
  243, 385,
  243, 386,
  243, 387,
  243, 389,
  243, 390,
  243, 392,
  243, 394,
  243, 396,
  243, 397,
  243, 399,
  243, 405,
  243, 406,
  243, 407,
  243, 408,
  243, 412,
  243, 414,
  243, 418,
  243, 419,
  243, 421,
  243, 422,
  243, 423,
  243, 424,
  243, 426,
  243, 429,
  243, 433,
  243, 434,
  243, 436,
  243, 437,
  243, 438,
  243, 439,
  243, 442,
  243, 443,
  243, 444,
  243, 445,
  243, 447,
  243, 448,
  243, 450,
  243, 451,
  243, 452,
  243, 455,
  243, 457,
  243, 458,
  243, 462,
  243, 463,
  243, 464,
  243, 465,
  243, 466,
  243, 467,
  243, 469,
  243, 470,
  243, 473,
  243, 475,
  243, 477,
  243, 478,
  243, 481,
  243, 484,
  243, 487,
  243, 488,
  243, 489,
  243, 490,
  243, 493,
  243, 494,
  243, 495,
  243, 498,
  244, 245,
  244, 246,
  244, 249,
  244, 251,
  244, 252,
  244, 253,
  244, 254,
  244, 255,
  244, 256,
  244, 257,
  244, 258,
  244, 259,
  244, 260,
  244, 261,
  244, 264,
  244, 269,
  244, 276,
  244, 277,
  244, 278,
  244, 280,
  244, 282,
  244, 283,
  244, 285,
  244, 292,
  244, 296,
  244, 297,
  244, 298,
  244, 299,
  244, 304,
  244, 305,
  244, 308,
  244, 309,
  244, 310,
  244, 315,
  244, 318,
  244, 319,
  244, 320,
  244, 324,
  244, 326,
  244, 329,
  244, 330,
  244, 331,
  244, 333,
  244, 337,
  244, 338,
  244, 339,
  244, 340,
  244, 345,
  244, 349,
  244, 351,
  244, 353,
  244, 354,
  244, 356,
  244, 367,
  244, 368,
  244, 370,
  244, 371,
  244, 372,
  244, 374,
  244, 375,
  244, 376,
  244, 378,
  244, 379,
  244, 380,
  244, 381,
  244, 384,
  244, 385,
  244, 388,
  244, 389,
  244, 391,
  244, 392,
  244, 393,
  244, 395,
  244, 396,
  244, 398,
  244, 400,
  244, 401,
  244, 404,
  244, 405,
  244, 406,
  244, 407,
  244, 408,
  244, 410,
  244, 411,
  244, 412,
  244, 416,
  244, 417,
  244, 420,
  244, 421,
  244, 422,
  244, 423,
  244, 424,
  244, 425,
  244, 426,
  244, 427,
  244, 429,
  244, 430,
  244, 433,
  244, 435,
  244, 438,
  244, 439,
  244, 440,
  244, 441,
  244, 443,
  244, 445,
  244, 450,
  244, 451,
  244, 456,
  244, 457,
  244, 460,
  244, 461,
  244, 463,
  244, 465,
  244, 466,
  244, 468,
  244, 469,
  244, 470,
  244, 475,
  244, 476,
  244, 479,
  244, 481,
  244, 482,
  244, 483,
  244, 484,
  244, 487,
  244, 489,
  244, 490,
  244, 491,
  244, 493,
  244, 494,
  244, 496,
  244, 497,
  244, 498,
  244, 499,
  244, 500,
  245, 246,
  245, 247,
  245, 248,
  245, 252,
  245, 254,
  245, 255,
  245, 256,
  245, 257,
  245, 259,
  245, 260,
  245, 261,
  245, 262,
  245, 263,
  245, 264,
  245, 265,
  245, 266,
  245, 267,
  245, 268,
  245, 269,
  245, 270,
  245, 273,
  245, 277,
  245, 278,
  245, 280,
  245, 283,
  245, 284,
  245, 286,
  245, 287,
  245, 288,
  245, 290,
  245, 291,
  245, 292,
  245, 294,
  245, 297,
  245, 298,
  245, 302,
  245, 303,
  245, 305,
  245, 306,
  245, 308,
  245, 310,
  245, 313,
  245, 316,
  245, 318,
  245, 322,
  245, 327,
  245, 328,
  245, 329,
  245, 330,
  245, 332,
  245, 335,
  245, 336,
  245, 337,
  245, 338,
  245, 339,
  245, 340,
  245, 342,
  245, 344,
  245, 345,
  245, 347,
  245, 348,
  245, 350,
  245, 351,
  245, 352,
  245, 353,
  245, 355,
  245, 357,
  245, 358,
  245, 359,
  245, 362,
  245, 363,
  245, 364,
  245, 365,
  245, 371,
  245, 372,
  245, 378,
  245, 383,
  245, 384,
  245, 388,
  245, 389,
  245, 390,
  245, 391,
  245, 392,
  245, 397,
  245, 404,
  245, 405,
  245, 406,
  245, 408,
  245, 411,
  245, 412,
  245, 413,
  245, 414,
  245, 415,
  245, 417,
  245, 418,
  245, 419,
  245, 421,
  245, 424,
  245, 426,
  245, 427,
  245, 429,
  245, 431,
  245, 434,
  245, 439,
  245, 440,
  245, 444,
  245, 445,
  245, 451,
  245, 452,
  245, 453,
  245, 455,
  245, 459,
  245, 460,
  245, 463,
  245, 465,
  245, 466,
  245, 467,
  245, 469,
  245, 472,
  245, 474,
  245, 475,
  245, 476,
  245, 477,
  245, 478,
  245, 479,
  245, 480,
  245, 482,
  245, 483,
  245, 488,
  245, 490,
  245, 491,
  245, 492,
  245, 494,
  245, 495,
  246, 248,
  246, 249,
  246, 250,
  246, 251,
  246, 253,
  246, 254,
  246, 255,
  246, 257,
  246, 259,
  246, 260,
  246, 264,
  246, 267,
  246, 268,
  246, 270,
  246, 271,
  246, 274,
  246, 276,
  246, 277,
  246, 279,
  246, 281,
  246, 282,
  246, 283,
  246, 286,
  246, 287,
  246, 288,
  246, 289,
  246, 290,
  246, 291,
  246, 293,
  246, 294,
  246, 296,
  246, 302,
  246, 303,
  246, 304,
  246, 307,
  246, 308,
  246, 310,
  246, 312,
  246, 313,
  246, 315,
  246, 316,
  246, 318,
  246, 319,
  246, 321,
  246, 322,
  246, 323,
  246, 324,
  246, 326,
  246, 328,
  246, 330,
  246, 331,
  246, 333,
  246, 334,
  246, 335,
  246, 338,
  246, 339,
  246, 341,
  246, 345,
  246, 346,
  246, 351,
  246, 352,
  246, 353,
  246, 355,
  246, 356,
  246, 359,
  246, 360,
  246, 362,
  246, 368,
  246, 369,
  246, 371,
  246, 373,
  246, 374,
  246, 375,
  246, 376,
  246, 377,
  246, 379,
  246, 381,
  246, 382,
  246, 384,
  246, 388,
  246, 389,
  246, 391,
  246, 393,
  246, 395,
  246, 396,
  246, 397,
  246, 398,
  246, 399,
  246, 401,
  246, 402,
  246, 403,
  246, 404,
  246, 406,
  246, 415,
  246, 416,
  246, 417,
  246, 418,
  246, 420,
  246, 422,
  246, 426,
  246, 427,
  246, 429,
  246, 431,
  246, 432,
  246, 434,
  246, 436,
  246, 438,
  246, 439,
  246, 441,
  246, 442,
  246, 444,
  246, 445,
  246, 446,
  246, 447,
  246, 448,
  246, 449,
  246, 450,
  246, 451,
  246, 455,
  246, 456,
  246, 457,
  246, 459,
  246, 460,
  246, 461,
  246, 463,
  246, 464,
  246, 466,
  246, 468,
  246, 470,
  246, 474,
  246, 475,
  246, 478,
  246, 481,
  246, 486,
  246, 487,
  246, 492,
  246, 493,
  246, 495,
  246, 497,
  246, 498,
  247, 248,
  247, 250,
  247, 251,
  247, 252,
  247, 253,
  247, 254,
  247, 255,
  247, 256,
  247, 258,
  247, 260,
  247, 262,
  247, 263,
  247, 264,
  247, 265,
  247, 269,
  247, 271,
  247, 272,
  247, 274,
  247, 275,
  247, 276,
  247, 277,
  247, 278,
  247, 279,
  247, 280,
  247, 286,
  247, 289,
  247, 299,
  247, 303,
  247, 304,
  247, 305,
  247, 307,
  247, 308,
  247, 309,
  247, 313,
  247, 316,
  247, 321,
  247, 323,
  247, 324,
  247, 325,
  247, 327,
  247, 328,
  247, 329,
  247, 330,
  247, 332,
  247, 336,
  247, 337,
  247, 338,
  247, 341,
  247, 346,
  247, 347,
  247, 349,
  247, 351,
  247, 354,
  247, 355,
  247, 356,
  247, 359,
  247, 360,
  247, 361,
  247, 365,
  247, 368,
  247, 369,
  247, 371,
  247, 372,
  247, 373,
  247, 375,
  247, 376,
  247, 377,
  247, 381,
  247, 384,
  247, 387,
  247, 389,
  247, 390,
  247, 391,
  247, 397,
  247, 398,
  247, 400,
  247, 401,
  247, 405,
  247, 408,
  247, 409,
  247, 410,
  247, 412,
  247, 413,
  247, 415,
  247, 417,
  247, 418,
  247, 419,
  247, 424,
  247, 425,
  247, 429,
  247, 431,
  247, 433,
  247, 434,
  247, 440,
  247, 441,
  247, 443,
  247, 444,
  247, 446,
  247, 449,
  247, 452,
  247, 454,
  247, 455,
  247, 460,
  247, 461,
  247, 462,
  247, 464,
  247, 468,
  247, 469,
  247, 470,
  247, 471,
  247, 472,
  247, 475,
  247, 476,
  247, 479,
  247, 480,
  247, 482,
  247, 483,
  247, 484,
  247, 485,
  247, 491,
  247, 492,
  247, 494,
  247, 495,
  247, 497,
  247, 499,
  248, 249,
  248, 251,
  248, 253,
  248, 255,
  248, 258,
  248, 262,
  248, 263,
  248, 264,
  248, 268,
  248, 271,
  248, 272,
  248, 273,
  248, 274,
  248, 275,
  248, 279,
  248, 280,
  248, 282,
  248, 283,
  248, 286,
  248, 288,
  248, 289,
  248, 290,
  248, 292,
  248, 293,
  248, 296,
  248, 300,
  248, 301,
  248, 303,
  248, 305,
  248, 306,
  248, 308,
  248, 311,
  248, 312,
  248, 315,
  248, 317,
  248, 319,
  248, 320,
  248, 322,
  248, 323,
  248, 324,
  248, 327,
  248, 329,
  248, 330,
  248, 332,
  248, 333,
  248, 334,
  248, 335,
  248, 336,
  248, 337,
  248, 342,
  248, 344,
  248, 345,
  248, 346,
  248, 347,
  248, 349,
  248, 354,
  248, 358,
  248, 359,
  248, 360,
  248, 363,
  248, 364,
  248, 366,
  248, 367,
  248, 369,
  248, 372,
  248, 373,
  248, 374,
  248, 376,
  248, 377,
  248, 380,
  248, 381,
  248, 382,
  248, 385,
  248, 386,
  248, 390,
  248, 392,
  248, 393,
  248, 395,
  248, 396,
  248, 399,
  248, 401,
  248, 402,
  248, 403,
  248, 408,
  248, 409,
  248, 413,
  248, 418,
  248, 419,
  248, 422,
  248, 423,
  248, 424,
  248, 425,
  248, 426,
  248, 428,
  248, 430,
  248, 432,
  248, 433,
  248, 437,
  248, 442,
  248, 443,
  248, 445,
  248, 448,
  248, 449,
  248, 454,
  248, 455,
  248, 457,
  248, 458,
  248, 460,
  248, 461,
  248, 462,
  248, 463,
  248, 467,
  248, 468,
  248, 469,
  248, 473,
  248, 475,
  248, 476,
  248, 477,
  248, 479,
  248, 480,
  248, 482,
  248, 487,
  248, 488,
  248, 496,
  248, 497,
  248, 498,
  248, 499,
  248, 500,
  249, 250,
  249, 252,
  249, 253,
  249, 260,
  249, 261,
  249, 263,
  249, 264,
  249, 265,
  249, 266,
  249, 270,
  249, 272,
  249, 275,
  249, 276,
  249, 277,
  249, 278,
  249, 281,
  249, 282,
  249, 283,
  249, 285,
  249, 286,
  249, 288,
  249, 289,
  249, 294,
  249, 296,
  249, 302,
  249, 303,
  249, 304,
  249, 305,
  249, 306,
  249, 311,
  249, 313,
  249, 315,
  249, 316,
  249, 317,
  249, 318,
  249, 320,
  249, 321,
  249, 322,
  249, 323,
  249, 326,
  249, 327,
  249, 328,
  249, 329,
  249, 334,
  249, 335,
  249, 336,
  249, 337,
  249, 338,
  249, 339,
  249, 341,
  249, 346,
  249, 348,
  249, 350,
  249, 351,
  249, 352,
  249, 355,
  249, 356,
  249, 359,
  249, 360,
  249, 361,
  249, 363,
  249, 366,
  249, 368,
  249, 370,
  249, 372,
  249, 373,
  249, 376,
  249, 378,
  249, 379,
  249, 382,
  249, 383,
  249, 385,
  249, 387,
  249, 389,
  249, 391,
  249, 392,
  249, 393,
  249, 396,
  249, 397,
  249, 402,
  249, 403,
  249, 404,
  249, 405,
  249, 406,
  249, 407,
  249, 408,
  249, 409,
  249, 411,
  249, 412,
  249, 416,
  249, 418,
  249, 419,
  249, 420,
  249, 424,
  249, 425,
  249, 428,
  249, 429,
  249, 430,
  249, 432,
  249, 434,
  249, 436,
  249, 439,
  249, 442,
  249, 444,
  249, 446,
  249, 447,
  249, 448,
  249, 451,
  249, 455,
  249, 456,
  249, 459,
  249, 460,
  249, 462,
  249, 466,
  249, 470,
  249, 473,
  249, 474,
  249, 476,
  249, 477,
  249, 481,
  249, 489,
  249, 493,
  249, 496,
  249, 498,
  250, 251,
  250, 253,
  250, 255,
  250, 256,
  250, 260,
  250, 261,
  250, 262,
  250, 263,
  250, 264,
  250, 265,
  250, 266,
  250, 267,
  250, 268,
  250, 270,
  250, 271,
  250, 273,
  250, 274,
  250, 275,
  250, 276,
  250, 277,
  250, 279,
  250, 280,
  250, 281,
  250, 282,
  250, 283,
  250, 288,
  250, 290,
  250, 292,
  250, 293,
  250, 295,
  250, 298,
  250, 300,
  250, 301,
  250, 302,
  250, 304,
  250, 305,
  250, 306,
  250, 307,
  250, 308,
  250, 309,
  250, 310,
  250, 311,
  250, 312,
  250, 313,
  250, 315,
  250, 318,
  250, 322,
  250, 325,
  250, 331,
  250, 333,
  250, 335,
  250, 336,
  250, 338,
  250, 340,
  250, 342,
  250, 343,
  250, 344,
  250, 348,
  250, 352,
  250, 353,
  250, 357,
  250, 360,
  250, 362,
  250, 363,
  250, 366,
  250, 368,
  250, 369,
  250, 372,
  250, 373,
  250, 375,
  250, 377,
  250, 378,
  250, 382,
  250, 387,
  250, 388,
  250, 389,
  250, 392,
  250, 395,
  250, 396,
  250, 399,
  250, 402,
  250, 403,
  250, 404,
  250, 406,
  250, 407,
  250, 409,
  250, 410,
  250, 411,
  250, 412,
  250, 414,
  250, 415,
  250, 416,
  250, 420,
  250, 421,
  250, 423,
  250, 425,
  250, 428,
  250, 430,
  250, 431,
  250, 432,
  250, 435,
  250, 436,
  250, 438,
  250, 439,
  250, 442,
  250, 444,
  250, 446,
  250, 449,
  250, 453,
  250, 454,
  250, 455,
  250, 459,
  250, 461,
  250, 462,
  250, 463,
  250, 466,
  250, 467,
  250, 468,
  250, 470,
  250, 471,
  250, 472,
  250, 474,
  250, 475,
  250, 476,
  250, 477,
  250, 478,
  250, 483,
  250, 485,
  250, 486,
  250, 488,
  250, 490,
  250, 491,
  250, 492,
  250, 494,
  250, 496,
  250, 498,
  250, 499,
  250, 500,
  251, 252,
  251, 253,
  251, 254,
  251, 255,
  251, 256,
  251, 258,
  251, 260,
  251, 261,
  251, 262,
  251, 264,
  251, 265,
  251, 266,
  251, 273,
  251, 276,
  251, 282,
  251, 296,
  251, 297,
  251, 298,
  251, 299,
  251, 300,
  251, 303,
  251, 304,
  251, 305,
  251, 309,
  251, 311,
  251, 313,
  251, 315,
  251, 317,
  251, 321,
  251, 322,
  251, 324,
  251, 325,
  251, 326,
  251, 330,
  251, 331,
  251, 332,
  251, 333,
  251, 334,
  251, 337,
  251, 341,
  251, 344,
  251, 347,
  251, 350,
  251, 351,
  251, 352,
  251, 353,
  251, 359,
  251, 362,
  251, 363,
  251, 367,
  251, 370,
  251, 372,
  251, 373,
  251, 375,
  251, 377,
  251, 379,
  251, 380,
  251, 381,
  251, 384,
  251, 385,
  251, 386,
  251, 387,
  251, 392,
  251, 393,
  251, 395,
  251, 396,
  251, 398,
  251, 399,
  251, 403,
  251, 404,
  251, 405,
  251, 406,
  251, 408,
  251, 410,
  251, 411,
  251, 412,
  251, 415,
  251, 417,
  251, 419,
  251, 424,
  251, 425,
  251, 430,
  251, 432,
  251, 433,
  251, 434,
  251, 436,
  251, 437,
  251, 439,
  251, 442,
  251, 443,
  251, 450,
  251, 451,
  251, 454,
  251, 455,
  251, 456,
  251, 460,
  251, 461,
  251, 464,
  251, 465,
  251, 468,
  251, 471,
  251, 472,
  251, 473,
  251, 475,
  251, 476,
  251, 479,
  251, 481,
  251, 482,
  251, 483,
  251, 486,
  251, 488,
  251, 492,
  251, 494,
  251, 495,
  251, 499,
  251, 500,
  252, 255,
  252, 256,
  252, 258,
  252, 260,
  252, 264,
  252, 269,
  252, 275,
  252, 276,
  252, 279,
  252, 280,
  252, 281,
  252, 282,
  252, 284,
  252, 285,
  252, 292,
  252, 294,
  252, 295,
  252, 296,
  252, 298,
  252, 300,
  252, 301,
  252, 302,
  252, 308,
  252, 310,
  252, 311,
  252, 313,
  252, 314,
  252, 322,
  252, 323,
  252, 332,
  252, 333,
  252, 334,
  252, 335,
  252, 336,
  252, 338,
  252, 342,
  252, 343,
  252, 345,
  252, 348,
  252, 349,
  252, 350,
  252, 351,
  252, 353,
  252, 355,
  252, 356,
  252, 357,
  252, 360,
  252, 361,
  252, 362,
  252, 363,
  252, 365,
  252, 366,
  252, 370,
  252, 374,
  252, 375,
  252, 376,
  252, 377,
  252, 378,
  252, 379,
  252, 382,
  252, 383,
  252, 384,
  252, 388,
  252, 390,
  252, 391,
  252, 392,
  252, 394,
  252, 396,
  252, 397,
  252, 401,
  252, 402,
  252, 403,
  252, 404,
  252, 405,
  252, 408,
  252, 410,
  252, 414,
  252, 415,
  252, 416,
  252, 417,
  252, 418,
  252, 425,
  252, 428,
  252, 432,
  252, 433,
  252, 435,
  252, 437,
  252, 439,
  252, 445,
  252, 450,
  252, 453,
  252, 456,
  252, 457,
  252, 462,
  252, 466,
  252, 468,
  252, 469,
  252, 471,
  252, 472,
  252, 474,
  252, 475,
  252, 476,
  252, 477,
  252, 478,
  252, 479,
  252, 481,
  252, 483,
  252, 484,
  252, 488,
  252, 490,
  252, 491,
  252, 493,
  252, 495,
  252, 498,
  253, 254,
  253, 256,
  253, 257,
  253, 258,
  253, 260,
  253, 261,
  253, 265,
  253, 266,
  253, 270,
  253, 271,
  253, 273,
  253, 274,
  253, 275,
  253, 279,
  253, 280,
  253, 284,
  253, 290,
  253, 292,
  253, 293,
  253, 294,
  253, 296,
  253, 298,
  253, 299,
  253, 300,
  253, 303,
  253, 306,
  253, 308,
  253, 311,
  253, 314,
  253, 315,
  253, 316,
  253, 317,
  253, 318,
  253, 319,
  253, 320,
  253, 321,
  253, 324,
  253, 325,
  253, 332,
  253, 334,
  253, 335,
  253, 336,
  253, 338,
  253, 339,
  253, 340,
  253, 341,
  253, 342,
  253, 344,
  253, 349,
  253, 350,
  253, 351,
  253, 353,
  253, 354,
  253, 355,
  253, 356,
  253, 357,
  253, 358,
  253, 361,
  253, 363,
  253, 364,
  253, 366,
  253, 368,
  253, 369,
  253, 370,
  253, 372,
  253, 373,
  253, 375,
  253, 379,
  253, 381,
  253, 382,
  253, 383,
  253, 384,
  253, 385,
  253, 387,
  253, 388,
  253, 389,
  253, 390,
  253, 392,
  253, 393,
  253, 396,
  253, 399,
  253, 400,
  253, 404,
  253, 405,
  253, 408,
  253, 409,
  253, 411,
  253, 412,
  253, 413,
  253, 415,
  253, 420,
  253, 421,
  253, 423,
  253, 424,
  253, 425,
  253, 428,
  253, 434,
  253, 435,
  253, 438,
  253, 440,
  253, 442,
  253, 443,
  253, 446,
  253, 447,
  253, 448,
  253, 450,
  253, 452,
  253, 453,
  253, 455,
  253, 458,
  253, 459,
  253, 460,
  253, 461,
  253, 462,
  253, 463,
  253, 465,
  253, 467,
  253, 470,
  253, 471,
  253, 473,
  253, 475,
  253, 476,
  253, 480,
  253, 483,
  253, 485,
  253, 487,
  253, 488,
  253, 490,
  253, 492,
  253, 494,
  253, 498,
  253, 499,
  254, 255,
  254, 256,
  254, 257,
  254, 259,
  254, 260,
  254, 261,
  254, 263,
  254, 264,
  254, 265,
  254, 266,
  254, 268,
  254, 271,
  254, 272,
  254, 278,
  254, 279,
  254, 280,
  254, 281,
  254, 282,
  254, 283,
  254, 286,
  254, 291,
  254, 293,
  254, 294,
  254, 295,
  254, 296,
  254, 298,
  254, 299,
  254, 300,
  254, 302,
  254, 305,
  254, 306,
  254, 307,
  254, 310,
  254, 311,
  254, 312,
  254, 314,
  254, 317,
  254, 319,
  254, 322,
  254, 323,
  254, 332,
  254, 333,
  254, 336,
  254, 344,
  254, 345,
  254, 349,
  254, 350,
  254, 351,
  254, 352,
  254, 355,
  254, 357,
  254, 360,
  254, 361,
  254, 364,
  254, 365,
  254, 369,
  254, 370,
  254, 372,
  254, 374,
  254, 375,
  254, 378,
  254, 379,
  254, 381,
  254, 382,
  254, 383,
  254, 384,
  254, 385,
  254, 386,
  254, 387,
  254, 389,
  254, 390,
  254, 391,
  254, 392,
  254, 393,
  254, 394,
  254, 396,
  254, 398,
  254, 403,
  254, 407,
  254, 408,
  254, 410,
  254, 411,
  254, 412,
  254, 413,
  254, 414,
  254, 417,
  254, 418,
  254, 419,
  254, 422,
  254, 425,
  254, 427,
  254, 429,
  254, 431,
  254, 432,
  254, 435,
  254, 437,
  254, 441,
  254, 444,
  254, 445,
  254, 449,
  254, 450,
  254, 452,
  254, 454,
  254, 455,
  254, 456,
  254, 457,
  254, 458,
  254, 459,
  254, 465,
  254, 469,
  254, 473,
  254, 474,
  254, 479,
  254, 480,
  254, 483,
  254, 485,
  254, 488,
  254, 491,
  254, 492,
  254, 497,
  254, 498,
  255, 256,
  255, 260,
  255, 261,
  255, 262,
  255, 266,
  255, 267,
  255, 268,
  255, 270,
  255, 271,
  255, 273,
  255, 274,
  255, 278,
  255, 279,
  255, 281,
  255, 282,
  255, 284,
  255, 285,
  255, 290,
  255, 292,
  255, 298,
  255, 301,
  255, 304,
  255, 305,
  255, 308,
  255, 310,
  255, 311,
  255, 313,
  255, 314,
  255, 316,
  255, 319,
  255, 322,
  255, 324,
  255, 326,
  255, 329,
  255, 334,
  255, 335,
  255, 337,
  255, 338,
  255, 339,
  255, 340,
  255, 341,
  255, 344,
  255, 345,
  255, 347,
  255, 349,
  255, 351,
  255, 352,
  255, 354,
  255, 357,
  255, 359,
  255, 360,
  255, 361,
  255, 362,
  255, 363,
  255, 367,
  255, 368,
  255, 370,
  255, 371,
  255, 374,
  255, 375,
  255, 377,
  255, 378,
  255, 379,
  255, 383,
  255, 385,
  255, 386,
  255, 387,
  255, 388,
  255, 389,
  255, 395,
  255, 396,
  255, 397,
  255, 398,
  255, 399,
  255, 401,
  255, 402,
  255, 403,
  255, 405,
  255, 407,
  255, 409,
  255, 411,
  255, 412,
  255, 413,
  255, 415,
  255, 417,
  255, 418,
  255, 419,
  255, 423,
  255, 424,
  255, 425,
  255, 427,
  255, 428,
  255, 429,
  255, 430,
  255, 432,
  255, 434,
  255, 435,
  255, 439,
  255, 442,
  255, 443,
  255, 445,
  255, 446,
  255, 451,
  255, 453,
  255, 454,
  255, 455,
  255, 456,
  255, 457,
  255, 459,
  255, 461,
  255, 463,
  255, 464,
  255, 468,
  255, 473,
  255, 476,
  255, 477,
  255, 479,
  255, 481,
  255, 484,
  255, 485,
  255, 486,
  255, 487,
  255, 488,
  255, 489,
  255, 491,
  255, 494,
  255, 495,
  255, 498,
  255, 499,
  256, 257,
  256, 258,
  256, 259,
  256, 262,
  256, 264,
  256, 266,
  256, 269,
  256, 272,
  256, 273,
  256, 276,
  256, 279,
  256, 280,
  256, 281,
  256, 282,
  256, 283,
  256, 293,
  256, 294,
  256, 295,
  256, 296,
  256, 297,
  256, 299,
  256, 300,
  256, 301,
  256, 302,
  256, 304,
  256, 307,
  256, 308,
  256, 310,
  256, 311,
  256, 313,
  256, 315,
  256, 316,
  256, 319,
  256, 320,
  256, 321,
  256, 322,
  256, 324,
  256, 325,
  256, 326,
  256, 329,
  256, 332,
  256, 335,
  256, 336,
  256, 337,
  256, 340,
  256, 342,
  256, 343,
  256, 345,
  256, 346,
  256, 347,
  256, 350,
  256, 351,
  256, 352,
  256, 360,
  256, 363,
  256, 368,
  256, 369,
  256, 371,
  256, 372,
  256, 373,
  256, 374,
  256, 376,
  256, 378,
  256, 380,
  256, 383,
  256, 384,
  256, 385,
  256, 387,
  256, 388,
  256, 392,
  256, 393,
  256, 397,
  256, 400,
  256, 402,
  256, 404,
  256, 405,
  256, 407,
  256, 409,
  256, 414,
  256, 415,
  256, 416,
  256, 417,
  256, 418,
  256, 421,
  256, 422,
  256, 423,
  256, 424,
  256, 425,
  256, 426,
  256, 430,
  256, 433,
  256, 434,
  256, 436,
  256, 437,
  256, 441,
  256, 442,
  256, 444,
  256, 445,
  256, 446,
  256, 448,
  256, 452,
  256, 453,
  256, 454,
  256, 455,
  256, 456,
  256, 457,
  256, 460,
  256, 461,
  256, 463,
  256, 464,
  256, 465,
  256, 467,
  256, 468,
  256, 470,
  256, 471,
  256, 474,
  256, 475,
  256, 477,
  256, 483,
  256, 484,
  256, 485,
  256, 490,
  256, 497,
  256, 498,
  256, 499,
  256, 500,
  257, 258,
  257, 259,
  257, 261,
  257, 262,
  257, 263,
  257, 266,
  257, 267,
  257, 269,
  257, 270,
  257, 271,
  257, 273,
  257, 274,
  257, 275,
  257, 276,
  257, 277,
  257, 278,
  257, 279,
  257, 281,
  257, 283,
  257, 286,
  257, 288,
  257, 293,
  257, 294,
  257, 296,
  257, 299,
  257, 304,
  257, 310,
  257, 312,
  257, 315,
  257, 316,
  257, 317,
  257, 320,
  257, 321,
  257, 325,
  257, 326,
  257, 329,
  257, 330,
  257, 331,
  257, 332,
  257, 336,
  257, 338,
  257, 339,
  257, 340,
  257, 341,
  257, 342,
  257, 345,
  257, 350,
  257, 351,
  257, 353,
  257, 354,
  257, 355,
  257, 357,
  257, 360,
  257, 361,
  257, 362,
  257, 363,
  257, 366,
  257, 367,
  257, 369,
  257, 370,
  257, 373,
  257, 383,
  257, 386,
  257, 388,
  257, 391,
  257, 392,
  257, 394,
  257, 397,
  257, 406,
  257, 407,
  257, 408,
  257, 409,
  257, 410,
  257, 416,
  257, 417,
  257, 418,
  257, 420,
  257, 421,
  257, 423,
  257, 425,
  257, 427,
  257, 428,
  257, 431,
  257, 432,
  257, 434,
  257, 435,
  257, 436,
  257, 438,
  257, 440,
  257, 441,
  257, 442,
  257, 444,
  257, 445,
  257, 447,
  257, 452,
  257, 453,
  257, 455,
  257, 456,
  257, 459,
  257, 461,
  257, 463,
  257, 464,
  257, 467,
  257, 468,
  257, 472,
  257, 475,
  257, 476,
  257, 477,
  257, 478,
  257, 479,
  257, 480,
  257, 484,
  257, 485,
  257, 486,
  257, 487,
  257, 488,
  257, 491,
  257, 494,
  257, 495,
  258, 260,
  258, 261,
  258, 263,
  258, 265,
  258, 267,
  258, 270,
  258, 273,
  258, 274,
  258, 276,
  258, 277,
  258, 282,
  258, 283,
  258, 284,
  258, 285,
  258, 286,
  258, 287,
  258, 288,
  258, 289,
  258, 290,
  258, 292,
  258, 295,
  258, 297,
  258, 298,
  258, 300,
  258, 301,
  258, 304,
  258, 305,
  258, 306,
  258, 307,
  258, 308,
  258, 310,
  258, 312,
  258, 315,
  258, 317,
  258, 318,
  258, 320,
  258, 321,
  258, 323,
  258, 325,
  258, 327,
  258, 329,
  258, 330,
  258, 331,
  258, 332,
  258, 333,
  258, 335,
  258, 338,
  258, 340,
  258, 341,
  258, 344,
  258, 345,
  258, 346,
  258, 353,
  258, 354,
  258, 355,
  258, 357,
  258, 360,
  258, 361,
  258, 363,
  258, 364,
  258, 367,
  258, 368,
  258, 369,
  258, 371,
  258, 374,
  258, 376,
  258, 377,
  258, 378,
  258, 380,
  258, 383,
  258, 384,
  258, 385,
  258, 386,
  258, 393,
  258, 395,
  258, 396,
  258, 397,
  258, 398,
  258, 399,
  258, 400,
  258, 405,
  258, 407,
  258, 410,
  258, 414,
  258, 419,
  258, 421,
  258, 423,
  258, 424,
  258, 427,
  258, 432,
  258, 433,
  258, 434,
  258, 440,
  258, 441,
  258, 446,
  258, 450,
  258, 451,
  258, 453,
  258, 456,
  258, 460,
  258, 461,
  258, 463,
  258, 464,
  258, 466,
  258, 467,
  258, 468,
  258, 471,
  258, 474,
  258, 476,
  258, 478,
  258, 482,
  258, 485,
  258, 488,
  258, 489,
  258, 490,
  258, 491,
  258, 492,
  258, 495,
  258, 500,
  259, 263,
  259, 265,
  259, 268,
  259, 269,
  259, 273,
  259, 277,
  259, 281,
  259, 284,
  259, 285,
  259, 287,
  259, 288,
  259, 289,
  259, 292,
  259, 293,
  259, 296,
  259, 300,
  259, 303,
  259, 305,
  259, 309,
  259, 311,
  259, 312,
  259, 314,
  259, 319,
  259, 321,
  259, 325,
  259, 326,
  259, 327,
  259, 328,
  259, 330,
  259, 331,
  259, 335,
  259, 337,
  259, 339,
  259, 340,
  259, 341,
  259, 348,
  259, 350,
  259, 351,
  259, 352,
  259, 354,
  259, 355,
  259, 358,
  259, 361,
  259, 365,
  259, 366,
  259, 369,
  259, 370,
  259, 372,
  259, 373,
  259, 375,
  259, 377,
  259, 378,
  259, 382,
  259, 384,
  259, 385,
  259, 387,
  259, 388,
  259, 389,
  259, 391,
  259, 393,
  259, 396,
  259, 397,
  259, 399,
  259, 400,
  259, 402,
  259, 404,
  259, 405,
  259, 407,
  259, 408,
  259, 410,
  259, 413,
  259, 414,
  259, 418,
  259, 420,
  259, 423,
  259, 424,
  259, 425,
  259, 426,
  259, 427,
  259, 428,
  259, 431,
  259, 432,
  259, 433,
  259, 436,
  259, 438,
  259, 439,
  259, 442,
  259, 444,
  259, 449,
  259, 450,
  259, 451,
  259, 454,
  259, 456,
  259, 457,
  259, 461,
  259, 462,
  259, 464,
  259, 465,
  259, 466,
  259, 469,
  259, 476,
  259, 477,
  259, 480,
  259, 486,
  259, 487,
  259, 488,
  259, 489,
  259, 492,
  259, 493,
  259, 495,
  259, 496,
  259, 500,
  260, 261,
  260, 264,
  260, 266,
  260, 267,
  260, 268,
  260, 269,
  260, 270,
  260, 273,
  260, 274,
  260, 275,
  260, 276,
  260, 278,
  260, 280,
  260, 281,
  260, 283,
  260, 284,
  260, 285,
  260, 286,
  260, 289,
  260, 291,
  260, 292,
  260, 295,
  260, 296,
  260, 297,
  260, 299,
  260, 300,
  260, 302,
  260, 303,
  260, 306,
  260, 307,
  260, 312,
  260, 316,
  260, 318,
  260, 319,
  260, 320,
  260, 322,
  260, 323,
  260, 324,
  260, 326,
  260, 328,
  260, 329,
  260, 330,
  260, 332,
  260, 333,
  260, 334,
  260, 335,
  260, 336,
  260, 337,
  260, 338,
  260, 339,
  260, 341,
  260, 343,
  260, 344,
  260, 347,
  260, 348,
  260, 350,
  260, 353,
  260, 358,
  260, 359,
  260, 360,
  260, 361,
  260, 362,
  260, 364,
  260, 366,
  260, 367,
  260, 368,
  260, 372,
  260, 373,
  260, 375,
  260, 376,
  260, 377,
  260, 384,
  260, 386,
  260, 391,
  260, 392,
  260, 393,
  260, 397,
  260, 402,
  260, 405,
  260, 407,
  260, 408,
  260, 409,
  260, 412,
  260, 414,
  260, 416,
  260, 417,
  260, 418,
  260, 421,
  260, 423,
  260, 424,
  260, 428,
  260, 429,
  260, 430,
  260, 432,
  260, 433,
  260, 435,
  260, 436,
  260, 437,
  260, 440,
  260, 441,
  260, 443,
  260, 445,
  260, 447,
  260, 448,
  260, 450,
  260, 451,
  260, 452,
  260, 455,
  260, 458,
  260, 460,
  260, 463,
  260, 465,
  260, 466,
  260, 468,
  260, 475,
  260, 477,
  260, 479,
  260, 482,
  260, 484,
  260, 486,
  260, 487,
  260, 489,
  260, 490,
  260, 492,
  260, 493,
  260, 494,
  260, 495,
  260, 496,
  260, 497,
  261, 262,
  261, 263,
  261, 264,
  261, 266,
  261, 267,
  261, 268,
  261, 269,
  261, 270,
  261, 273,
  261, 276,
  261, 279,
  261, 280,
  261, 283,
  261, 284,
  261, 287,
  261, 288,
  261, 290,
  261, 291,
  261, 292,
  261, 298,
  261, 300,
  261, 301,
  261, 302,
  261, 306,
  261, 308,
  261, 310,
  261, 312,
  261, 313,
  261, 317,
  261, 318,
  261, 321,
  261, 322,
  261, 324,
  261, 330,
  261, 331,
  261, 333,
  261, 339,
  261, 340,
  261, 341,
  261, 342,
  261, 344,
  261, 345,
  261, 347,
  261, 351,
  261, 357,
  261, 358,
  261, 359,
  261, 360,
  261, 363,
  261, 364,
  261, 365,
  261, 366,
  261, 367,
  261, 372,
  261, 373,
  261, 374,
  261, 378,
  261, 381,
  261, 385,
  261, 386,
  261, 389,
  261, 390,
  261, 391,
  261, 397,
  261, 399,
  261, 407,
  261, 416,
  261, 417,
  261, 418,
  261, 420,
  261, 423,
  261, 426,
  261, 430,
  261, 432,
  261, 435,
  261, 438,
  261, 439,
  261, 440,
  261, 448,
  261, 453,
  261, 454,
  261, 456,
  261, 457,
  261, 464,
  261, 466,
  261, 467,
  261, 469,
  261, 473,
  261, 474,
  261, 478,
  261, 480,
  261, 481,
  261, 484,
  261, 489,
  261, 491,
  261, 493,
  261, 494,
  261, 496,
  261, 497,
  261, 500,
  262, 264,
  262, 268,
  262, 269,
  262, 272,
  262, 274,
  262, 275,
  262, 281,
  262, 282,
  262, 284,
  262, 285,
  262, 286,
  262, 288,
  262, 293,
  262, 294,
  262, 297,
  262, 299,
  262, 301,
  262, 302,
  262, 305,
  262, 309,
  262, 310,
  262, 312,
  262, 315,
  262, 316,
  262, 317,
  262, 318,
  262, 319,
  262, 320,
  262, 321,
  262, 322,
  262, 324,
  262, 326,
  262, 327,
  262, 328,
  262, 330,
  262, 331,
  262, 332,
  262, 333,
  262, 334,
  262, 336,
  262, 337,
  262, 338,
  262, 339,
  262, 342,
  262, 343,
  262, 345,
  262, 347,
  262, 348,
  262, 350,
  262, 351,
  262, 356,
  262, 360,
  262, 362,
  262, 367,
  262, 369,
  262, 372,
  262, 374,
  262, 375,
  262, 377,
  262, 378,
  262, 379,
  262, 380,
  262, 381,
  262, 382,
  262, 383,
  262, 386,
  262, 387,
  262, 388,
  262, 389,
  262, 390,
  262, 391,
  262, 392,
  262, 393,
  262, 394,
  262, 395,
  262, 398,
  262, 399,
  262, 400,
  262, 401,
  262, 409,
  262, 412,
  262, 414,
  262, 416,
  262, 417,
  262, 418,
  262, 420,
  262, 422,
  262, 423,
  262, 424,
  262, 425,
  262, 426,
  262, 428,
  262, 429,
  262, 432,
  262, 433,
  262, 434,
  262, 435,
  262, 436,
  262, 438,
  262, 441,
  262, 442,
  262, 448,
  262, 449,
  262, 451,
  262, 452,
  262, 453,
  262, 454,
  262, 455,
  262, 457,
  262, 458,
  262, 461,
  262, 462,
  262, 463,
  262, 464,
  262, 467,
  262, 468,
  262, 469,
  262, 475,
  262, 477,
  262, 478,
  262, 480,
  262, 481,
  262, 483,
  262, 486,
  262, 487,
  262, 488,
  262, 489,
  262, 491,
  262, 495,
  262, 496,
  262, 498,
  262, 499,
  262, 500,
  263, 264,
  263, 265,
  263, 268,
  263, 270,
  263, 271,
  263, 273,
  263, 274,
  263, 278,
  263, 279,
  263, 280,
  263, 281,
  263, 283,
  263, 285,
  263, 286,
  263, 288,
  263, 290,
  263, 292,
  263, 293,
  263, 295,
  263, 301,
  263, 303,
  263, 304,
  263, 305,
  263, 306,
  263, 307,
  263, 309,
  263, 310,
  263, 311,
  263, 312,
  263, 314,
  263, 316,
  263, 319,
  263, 320,
  263, 321,
  263, 322,
  263, 323,
  263, 325,
  263, 326,
  263, 329,
  263, 330,
  263, 332,
  263, 333,
  263, 335,
  263, 336,
  263, 342,
  263, 344,
  263, 345,
  263, 346,
  263, 347,
  263, 348,
  263, 349,
  263, 350,
  263, 351,
  263, 353,
  263, 354,
  263, 356,
  263, 358,
  263, 360,
  263, 362,
  263, 368,
  263, 370,
  263, 372,
  263, 373,
  263, 376,
  263, 377,
  263, 378,
  263, 380,
  263, 381,
  263, 382,
  263, 384,
  263, 385,
  263, 387,
  263, 389,
  263, 390,
  263, 391,
  263, 392,
  263, 393,
  263, 394,
  263, 396,
  263, 398,
  263, 399,
  263, 400,
  263, 401,
  263, 402,
  263, 404,
  263, 405,
  263, 406,
  263, 407,
  263, 411,
  263, 413,
  263, 415,
  263, 417,
  263, 418,
  263, 419,
  263, 420,
  263, 421,
  263, 422,
  263, 424,
  263, 425,
  263, 427,
  263, 428,
  263, 429,
  263, 430,
  263, 431,
  263, 434,
  263, 437,
  263, 439,
  263, 441,
  263, 442,
  263, 446,
  263, 447,
  263, 453,
  263, 457,
  263, 458,
  263, 460,
  263, 462,
  263, 463,
  263, 467,
  263, 468,
  263, 471,
  263, 472,
  263, 473,
  263, 475,
  263, 477,
  263, 479,
  263, 480,
  263, 481,
  263, 482,
  263, 484,
  263, 485,
  263, 486,
  263, 488,
  263, 489,
  263, 491,
  263, 493,
  263, 496,
  263, 497,
  263, 498,
  263, 499,
  263, 500,
  264, 265,
  264, 267,
  264, 269,
  264, 273,
  264, 275,
  264, 278,
  264, 280,
  264, 285,
  264, 287,
  264, 289,
  264, 290,
  264, 291,
  264, 295,
  264, 297,
  264, 298,
  264, 299,
  264, 300,
  264, 303,
  264, 304,
  264, 305,
  264, 306,
  264, 308,
  264, 310,
  264, 311,
  264, 313,
  264, 314,
  264, 315,
  264, 316,
  264, 318,
  264, 319,
  264, 322,
  264, 325,
  264, 326,
  264, 327,
  264, 331,
  264, 332,
  264, 333,
  264, 335,
  264, 338,
  264, 340,
  264, 341,
  264, 342,
  264, 344,
  264, 346,
  264, 348,
  264, 351,
  264, 352,
  264, 353,
  264, 354,
  264, 358,
  264, 363,
  264, 364,
  264, 366,
  264, 367,
  264, 368,
  264, 369,
  264, 370,
  264, 372,
  264, 373,
  264, 374,
  264, 376,
  264, 377,
  264, 380,
  264, 381,
  264, 384,
  264, 385,
  264, 386,
  264, 390,
  264, 391,
  264, 392,
  264, 393,
  264, 394,
  264, 396,
  264, 397,
  264, 398,
  264, 400,
  264, 402,
  264, 405,
  264, 407,
  264, 410,
  264, 411,
  264, 414,
  264, 415,
  264, 417,
  264, 418,
  264, 419,
  264, 420,
  264, 421,
  264, 423,
  264, 424,
  264, 425,
  264, 426,
  264, 431,
  264, 432,
  264, 435,
  264, 436,
  264, 438,
  264, 439,
  264, 440,
  264, 442,
  264, 448,
  264, 450,
  264, 451,
  264, 452,
  264, 453,
  264, 458,
  264, 459,
  264, 462,
  264, 465,
  264, 466,
  264, 467,
  264, 469,
  264, 471,
  264, 472,
  264, 473,
  264, 475,
  264, 478,
  264, 481,
  264, 484,
  264, 486,
  264, 488,
  264, 489,
  264, 490,
  264, 492,
  264, 496,
  264, 498,
  265, 269,
  265, 270,
  265, 271,
  265, 273,
  265, 275,
  265, 276,
  265, 277,
  265, 282,
  265, 283,
  265, 286,
  265, 287,
  265, 292,
  265, 293,
  265, 295,
  265, 298,
  265, 300,
  265, 302,
  265, 304,
  265, 305,
  265, 309,
  265, 310,
  265, 311,
  265, 312,
  265, 314,
  265, 315,
  265, 316,
  265, 317,
  265, 320,
  265, 321,
  265, 322,
  265, 323,
  265, 325,
  265, 326,
  265, 327,
  265, 329,
  265, 330,
  265, 331,
  265, 335,
  265, 336,
  265, 337,
  265, 338,
  265, 340,
  265, 342,
  265, 343,
  265, 344,
  265, 348,
  265, 349,
  265, 352,
  265, 358,
  265, 360,
  265, 363,
  265, 366,
  265, 367,
  265, 368,
  265, 369,
  265, 371,
  265, 373,
  265, 374,
  265, 375,
  265, 376,
  265, 377,
  265, 378,
  265, 379,
  265, 383,
  265, 384,
  265, 386,
  265, 387,
  265, 389,
  265, 390,
  265, 391,
  265, 393,
  265, 399,
  265, 400,
  265, 401,
  265, 404,
  265, 405,
  265, 406,
  265, 407,
  265, 408,
  265, 409,
  265, 410,
  265, 411,
  265, 415,
  265, 418,
  265, 421,
  265, 426,
  265, 427,
  265, 428,
  265, 429,
  265, 431,
  265, 432,
  265, 434,
  265, 435,
  265, 436,
  265, 438,
  265, 442,
  265, 443,
  265, 445,
  265, 446,
  265, 448,
  265, 454,
  265, 455,
  265, 456,
  265, 457,
  265, 458,
  265, 459,
  265, 462,
  265, 466,
  265, 467,
  265, 469,
  265, 472,
  265, 473,
  265, 475,
  265, 479,
  265, 482,
  265, 485,
  265, 486,
  265, 490,
  265, 496,
  265, 497,
  265, 498,
  265, 499,
  266, 267,
  266, 269,
  266, 270,
  266, 272,
  266, 274,
  266, 275,
  266, 276,
  266, 278,
  266, 279,
  266, 281,
  266, 282,
  266, 283,
  266, 284,
  266, 287,
  266, 288,
  266, 289,
  266, 293,
  266, 294,
  266, 297,
  266, 299,
  266, 301,
  266, 303,
  266, 305,
  266, 307,
  266, 308,
  266, 309,
  266, 313,
  266, 317,
  266, 320,
  266, 324,
  266, 325,
  266, 327,
  266, 329,
  266, 334,
  266, 335,
  266, 336,
  266, 337,
  266, 338,
  266, 339,
  266, 340,
  266, 342,
  266, 344,
  266, 345,
  266, 346,
  266, 348,
  266, 349,
  266, 350,
  266, 351,
  266, 354,
  266, 356,
  266, 357,
  266, 360,
  266, 362,
  266, 370,
  266, 373,
  266, 374,
  266, 375,
  266, 377,
  266, 380,
  266, 381,
  266, 383,
  266, 384,
  266, 385,
  266, 387,
  266, 388,
  266, 394,
  266, 400,
  266, 401,
  266, 404,
  266, 406,
  266, 412,
  266, 413,
  266, 414,
  266, 415,
  266, 419,
  266, 420,
  266, 421,
  266, 424,
  266, 425,
  266, 428,
  266, 429,
  266, 434,
  266, 439,
  266, 441,
  266, 442,
  266, 443,
  266, 444,
  266, 445,
  266, 448,
  266, 451,
  266, 453,
  266, 455,
  266, 459,
  266, 461,
  266, 462,
  266, 463,
  266, 466,
  266, 468,
  266, 469,
  266, 470,
  266, 473,
  266, 474,
  266, 476,
  266, 480,
  266, 482,
  266, 483,
  266, 485,
  266, 486,
  266, 487,
  266, 489,
  266, 490,
  266, 492,
  266, 498,
  266, 500,
  267, 269,
  267, 273,
  267, 277,
  267, 281,
  267, 282,
  267, 283,
  267, 285,
  267, 287,
  267, 289,
  267, 292,
  267, 293,
  267, 294,
  267, 295,
  267, 297,
  267, 299,
  267, 302,
  267, 303,
  267, 305,
  267, 307,
  267, 310,
  267, 311,
  267, 314,
  267, 315,
  267, 316,
  267, 318,
  267, 319,
  267, 321,
  267, 322,
  267, 323,
  267, 324,
  267, 326,
  267, 328,
  267, 329,
  267, 330,
  267, 335,
  267, 336,
  267, 337,
  267, 338,
  267, 341,
  267, 344,
  267, 345,
  267, 348,
  267, 349,
  267, 351,
  267, 352,
  267, 354,
  267, 355,
  267, 356,
  267, 357,
  267, 362,
  267, 373,
  267, 374,
  267, 380,
  267, 381,
  267, 382,
  267, 389,
  267, 390,
  267, 394,
  267, 396,
  267, 399,
  267, 401,
  267, 403,
  267, 404,
  267, 407,
  267, 408,
  267, 410,
  267, 411,
  267, 412,
  267, 415,
  267, 416,
  267, 417,
  267, 418,
  267, 422,
  267, 425,
  267, 430,
  267, 431,
  267, 434,
  267, 435,
  267, 436,
  267, 437,
  267, 441,
  267, 443,
  267, 448,
  267, 452,
  267, 454,
  267, 456,
  267, 457,
  267, 459,
  267, 460,
  267, 461,
  267, 462,
  267, 463,
  267, 465,
  267, 467,
  267, 468,
  267, 475,
  267, 476,
  267, 478,
  267, 480,
  267, 481,
  267, 486,
  267, 487,
  267, 490,
  267, 493,
  267, 495,
  267, 496,
  267, 500,
  268, 269,
  268, 270,
  268, 275,
  268, 278,
  268, 280,
  268, 283,
  268, 284,
  268, 285,
  268, 288,
  268, 291,
  268, 293,
  268, 294,
  268, 298,
  268, 300,
  268, 302,
  268, 305,
  268, 306,
  268, 307,
  268, 310,
  268, 311,
  268, 314,
  268, 315,
  268, 320,
  268, 322,
  268, 323,
  268, 325,
  268, 326,
  268, 328,
  268, 330,
  268, 331,
  268, 332,
  268, 346,
  268, 348,
  268, 349,
  268, 351,
  268, 352,
  268, 353,
  268, 354,
  268, 355,
  268, 356,
  268, 358,
  268, 359,
  268, 360,
  268, 362,
  268, 364,
  268, 365,
  268, 366,
  268, 369,
  268, 371,
  268, 374,
  268, 376,
  268, 379,
  268, 380,
  268, 381,
  268, 385,
  268, 387,
  268, 392,
  268, 395,
  268, 398,
  268, 399,
  268, 402,
  268, 403,
  268, 406,
  268, 407,
  268, 410,
  268, 411,
  268, 412,
  268, 414,
  268, 418,
  268, 419,
  268, 422,
  268, 423,
  268, 426,
  268, 428,
  268, 429,
  268, 431,
  268, 433,
  268, 437,
  268, 438,
  268, 441,
  268, 442,
  268, 443,
  268, 444,
  268, 447,
  268, 450,
  268, 453,
  268, 456,
  268, 457,
  268, 463,
  268, 464,
  268, 465,
  268, 467,
  268, 468,
  268, 469,
  268, 470,
  268, 471,
  268, 472,
  268, 473,
  268, 474,
  268, 475,
  268, 476,
  268, 477,
  268, 483,
  268, 484,
  268, 486,
  268, 487,
  268, 489,
  268, 490,
  268, 491,
  268, 492,
  268, 493,
  268, 497,
  268, 499,
  269, 270,
  269, 273,
  269, 274,
  269, 275,
  269, 276,
  269, 278,
  269, 280,
  269, 281,
  269, 283,
  269, 286,
  269, 287,
  269, 289,
  269, 294,
  269, 298,
  269, 300,
  269, 301,
  269, 302,
  269, 303,
  269, 304,
  269, 306,
  269, 308,
  269, 311,
  269, 312,
  269, 314,
  269, 319,
  269, 322,
  269, 323,
  269, 326,
  269, 328,
  269, 329,
  269, 330,
  269, 332,
  269, 333,
  269, 335,
  269, 336,
  269, 342,
  269, 345,
  269, 352,
  269, 354,
  269, 356,
  269, 357,
  269, 358,
  269, 359,
  269, 363,
  269, 366,
  269, 368,
  269, 369,
  269, 371,
  269, 372,
  269, 373,
  269, 376,
  269, 377,
  269, 380,
  269, 381,
  269, 383,
  269, 391,
  269, 394,
  269, 395,
  269, 398,
  269, 400,
  269, 402,
  269, 404,
  269, 406,
  269, 411,
  269, 416,
  269, 417,
  269, 418,
  269, 420,
  269, 423,
  269, 424,
  269, 425,
  269, 430,
  269, 431,
  269, 432,
  269, 434,
  269, 438,
  269, 441,
  269, 442,
  269, 443,
  269, 445,
  269, 447,
  269, 452,
  269, 453,
  269, 454,
  269, 455,
  269, 458,
  269, 459,
  269, 463,
  269, 465,
  269, 466,
  269, 468,
  269, 470,
  269, 471,
  269, 472,
  269, 475,
  269, 477,
  269, 481,
  269, 483,
  269, 484,
  269, 488,
  269, 492,
  269, 495,
  269, 499,
  269, 500,
  270, 271,
  270, 273,
  270, 277,
  270, 280,
  270, 281,
  270, 283,
  270, 284,
  270, 287,
  270, 288,
  270, 292,
  270, 293,
  270, 294,
  270, 295,
  270, 297,
  270, 299,
  270, 301,
  270, 307,
  270, 308,
  270, 310,
  270, 311,
  270, 315,
  270, 320,
  270, 321,
  270, 324,
  270, 325,
  270, 326,
  270, 328,
  270, 330,
  270, 331,
  270, 334,
  270, 335,
  270, 337,
  270, 340,
  270, 341,
  270, 342,
  270, 343,
  270, 344,
  270, 345,
  270, 346,
  270, 347,
  270, 349,
  270, 353,
  270, 354,
  270, 355,
  270, 359,
  270, 360,
  270, 361,
  270, 362,
  270, 363,
  270, 364,
  270, 366,
  270, 367,
  270, 368,
  270, 369,
  270, 373,
  270, 375,
  270, 377,
  270, 378,
  270, 382,
  270, 384,
  270, 388,
  270, 393,
  270, 396,
  270, 397,
  270, 398,
  270, 399,
  270, 401,
  270, 404,
  270, 407,
  270, 408,
  270, 409,
  270, 412,
  270, 416,
  270, 417,
  270, 418,
  270, 422,
  270, 423,
  270, 426,
  270, 428,
  270, 434,
  270, 436,
  270, 437,
  270, 438,
  270, 439,
  270, 440,
  270, 441,
  270, 442,
  270, 444,
  270, 445,
  270, 446,
  270, 447,
  270, 448,
  270, 449,
  270, 451,
  270, 452,
  270, 453,
  270, 454,
  270, 455,
  270, 457,
  270, 460,
  270, 461,
  270, 462,
  270, 463,
  270, 464,
  270, 465,
  270, 467,
  270, 468,
  270, 469,
  270, 470,
  270, 471,
  270, 472,
  270, 476,
  270, 477,
  270, 478,
  270, 479,
  270, 480,
  270, 481,
  270, 482,
  270, 483,
  270, 484,
  270, 485,
  270, 486,
  270, 489,
  270, 490,
  270, 491,
  270, 495,
  270, 496,
  270, 497,
  270, 499,
  270, 500,
  271, 272,
  271, 273,
  271, 274,
  271, 275,
  271, 276,
  271, 278,
  271, 280,
  271, 281,
  271, 283,
  271, 285,
  271, 287,
  271, 292,
  271, 293,
  271, 294,
  271, 295,
  271, 300,
  271, 301,
  271, 304,
  271, 305,
  271, 309,
  271, 310,
  271, 315,
  271, 316,
  271, 319,
  271, 320,
  271, 321,
  271, 322,
  271, 323,
  271, 324,
  271, 325,
  271, 329,
  271, 331,
  271, 335,
  271, 336,
  271, 337,
  271, 338,
  271, 340,
  271, 341,
  271, 343,
  271, 345,
  271, 347,
  271, 348,
  271, 350,
  271, 353,
  271, 354,
  271, 358,
  271, 361,
  271, 362,
  271, 363,
  271, 366,
  271, 367,
  271, 368,
  271, 369,
  271, 372,
  271, 374,
  271, 376,
  271, 377,
  271, 378,
  271, 380,
  271, 382,
  271, 383,
  271, 385,
  271, 387,
  271, 388,
  271, 389,
  271, 390,
  271, 394,
  271, 395,
  271, 397,
  271, 398,
  271, 404,
  271, 406,
  271, 408,
  271, 410,
  271, 411,
  271, 414,
  271, 415,
  271, 417,
  271, 421,
  271, 422,
  271, 423,
  271, 425,
  271, 426,
  271, 428,
  271, 429,
  271, 433,
  271, 436,
  271, 438,
  271, 439,
  271, 440,
  271, 444,
  271, 445,
  271, 450,
  271, 452,
  271, 457,
  271, 460,
  271, 463,
  271, 467,
  271, 469,
  271, 471,
  271, 472,
  271, 474,
  271, 475,
  271, 481,
  271, 482,
  271, 483,
  271, 484,
  271, 485,
  271, 486,
  271, 487,
  271, 488,
  271, 491,
  271, 493,
  271, 496,
  271, 497,
  272, 273,
  272, 276,
  272, 278,
  272, 280,
  272, 281,
  272, 282,
  272, 284,
  272, 291,
  272, 293,
  272, 300,
  272, 301,
  272, 305,
  272, 306,
  272, 310,
  272, 311,
  272, 313,
  272, 314,
  272, 315,
  272, 316,
  272, 321,
  272, 324,
  272, 325,
  272, 328,
  272, 330,
  272, 334,
  272, 335,
  272, 336,
  272, 338,
  272, 340,
  272, 343,
  272, 348,
  272, 349,
  272, 351,
  272, 353,
  272, 354,
  272, 356,
  272, 357,
  272, 358,
  272, 359,
  272, 360,
  272, 362,
  272, 363,
  272, 365,
  272, 366,
  272, 367,
  272, 368,
  272, 369,
  272, 370,
  272, 371,
  272, 375,
  272, 379,
  272, 380,
  272, 382,
  272, 386,
  272, 391,
  272, 396,
  272, 397,
  272, 398,
  272, 399,
  272, 403,
  272, 404,
  272, 406,
  272, 410,
  272, 411,
  272, 412,
  272, 413,
  272, 414,
  272, 416,
  272, 418,
  272, 419,
  272, 420,
  272, 421,
  272, 422,
  272, 427,
  272, 428,
  272, 429,
  272, 430,
  272, 431,
  272, 432,
  272, 433,
  272, 434,
  272, 436,
  272, 438,
  272, 441,
  272, 442,
  272, 444,
  272, 446,
  272, 447,
  272, 450,
  272, 451,
  272, 454,
  272, 456,
  272, 457,
  272, 459,
  272, 460,
  272, 461,
  272, 464,
  272, 466,
  272, 467,
  272, 468,
  272, 469,
  272, 470,
  272, 471,
  272, 472,
  272, 473,
  272, 474,
  272, 475,
  272, 480,
  272, 481,
  272, 482,
  272, 484,
  272, 490,
  272, 491,
  272, 493,
  272, 496,
  273, 274,
  273, 275,
  273, 276,
  273, 281,
  273, 284,
  273, 287,
  273, 290,
  273, 293,
  273, 294,
  273, 295,
  273, 298,
  273, 299,
  273, 300,
  273, 301,
  273, 303,
  273, 304,
  273, 305,
  273, 307,
  273, 309,
  273, 310,
  273, 311,
  273, 314,
  273, 315,
  273, 316,
  273, 317,
  273, 318,
  273, 324,
  273, 327,
  273, 328,
  273, 330,
  273, 331,
  273, 332,
  273, 334,
  273, 336,
  273, 341,
  273, 343,
  273, 344,
  273, 345,
  273, 346,
  273, 347,
  273, 348,
  273, 353,
  273, 357,
  273, 360,
  273, 364,
  273, 366,
  273, 370,
  273, 371,
  273, 375,
  273, 381,
  273, 385,
  273, 387,
  273, 388,
  273, 390,
  273, 392,
  273, 394,
  273, 396,
  273, 397,
  273, 398,
  273, 402,
  273, 407,
  273, 410,
  273, 418,
  273, 419,
  273, 421,
  273, 422,
  273, 424,
  273, 427,
  273, 432,
  273, 434,
  273, 436,
  273, 438,
  273, 439,
  273, 440,
  273, 441,
  273, 442,
  273, 444,
  273, 446,
  273, 452,
  273, 453,
  273, 455,
  273, 456,
  273, 458,
  273, 459,
  273, 460,
  273, 465,
  273, 466,
  273, 467,
  273, 469,
  273, 473,
  273, 476,
  273, 478,
  273, 479,
  273, 481,
  273, 483,
  273, 486,
  273, 487,
  273, 488,
  273, 490,
  273, 491,
  273, 492,
  273, 495,
  273, 497,
  273, 498,
  273, 499,
  274, 275,
  274, 276,
  274, 279,
  274, 280,
  274, 281,
  274, 283,
  274, 285,
  274, 286,
  274, 288,
  274, 291,
  274, 292,
  274, 293,
  274, 294,
  274, 296,
  274, 298,
  274, 299,
  274, 300,
  274, 301,
  274, 303,
  274, 305,
  274, 306,
  274, 307,
  274, 308,
  274, 309,
  274, 311,
  274, 313,
  274, 318,
  274, 324,
  274, 325,
  274, 329,
  274, 330,
  274, 331,
  274, 332,
  274, 337,
  274, 339,
  274, 340,
  274, 342,
  274, 344,
  274, 346,
  274, 347,
  274, 348,
  274, 351,
  274, 352,
  274, 355,
  274, 362,
  274, 365,
  274, 366,
  274, 367,
  274, 368,
  274, 369,
  274, 375,
  274, 376,
  274, 381,
  274, 383,
  274, 388,
  274, 391,
  274, 393,
  274, 395,
  274, 396,
  274, 397,
  274, 399,
  274, 400,
  274, 404,
  274, 407,
  274, 408,
  274, 410,
  274, 412,
  274, 413,
  274, 414,
  274, 416,
  274, 418,
  274, 421,
  274, 424,
  274, 425,
  274, 427,
  274, 430,
  274, 432,
  274, 433,
  274, 434,
  274, 438,
  274, 439,
  274, 440,
  274, 443,
  274, 448,
  274, 449,
  274, 451,
  274, 453,
  274, 455,
  274, 458,
  274, 459,
  274, 461,
  274, 462,
  274, 467,
  274, 468,
  274, 469,
  274, 472,
  274, 473,
  274, 474,
  274, 478,
  274, 482,
  274, 483,
  274, 487,
  274, 489,
  274, 494,
  274, 495,
  274, 496,
  274, 497,
  274, 498,
  274, 499,
  275, 282,
  275, 285,
  275, 289,
  275, 293,
  275, 295,
  275, 296,
  275, 298,
  275, 299,
  275, 300,
  275, 305,
  275, 306,
  275, 307,
  275, 313,
  275, 316,
  275, 318,
  275, 320,
  275, 326,
  275, 328,
  275, 329,
  275, 331,
  275, 333,
  275, 335,
  275, 336,
  275, 337,
  275, 339,
  275, 343,
  275, 344,
  275, 352,
  275, 354,
  275, 356,
  275, 357,
  275, 362,
  275, 364,
  275, 365,
  275, 366,
  275, 367,
  275, 368,
  275, 369,
  275, 371,
  275, 375,
  275, 378,
  275, 379,
  275, 380,
  275, 381,
  275, 385,
  275, 388,
  275, 396,
  275, 398,
  275, 399,
  275, 400,
  275, 402,
  275, 403,
  275, 406,
  275, 407,
  275, 411,
  275, 412,
  275, 413,
  275, 414,
  275, 416,
  275, 418,
  275, 419,
  275, 420,
  275, 421,
  275, 424,
  275, 428,
  275, 431,
  275, 433,
  275, 435,
  275, 436,
  275, 443,
  275, 444,
  275, 445,
  275, 447,
  275, 448,
  275, 450,
  275, 451,
  275, 452,
  275, 453,
  275, 455,
  275, 458,
  275, 461,
  275, 464,
  275, 467,
  275, 471,
  275, 473,
  275, 483,
  275, 484,
  275, 485,
  275, 486,
  275, 487,
  275, 490,
  275, 491,
  275, 492,
  275, 493,
  275, 494,
  275, 495,
  275, 500,
  276, 285,
  276, 289,
  276, 292,
  276, 293,
  276, 294,
  276, 296,
  276, 298,
  276, 301,
  276, 302,
  276, 305,
  276, 307,
  276, 308,
  276, 311,
  276, 312,
  276, 313,
  276, 314,
  276, 315,
  276, 316,
  276, 317,
  276, 320,
  276, 322,
  276, 326,
  276, 328,
  276, 329,
  276, 331,
  276, 333,
  276, 334,
  276, 335,
  276, 337,
  276, 339,
  276, 340,
  276, 341,
  276, 343,
  276, 344,
  276, 345,
  276, 346,
  276, 348,
  276, 350,
  276, 351,
  276, 353,
  276, 358,
  276, 359,
  276, 362,
  276, 363,
  276, 366,
  276, 368,
  276, 373,
  276, 375,
  276, 376,
  276, 377,
  276, 378,
  276, 379,
  276, 381,
  276, 383,
  276, 386,
  276, 387,
  276, 388,
  276, 390,
  276, 391,
  276, 393,
  276, 394,
  276, 396,
  276, 398,
  276, 403,
  276, 405,
  276, 406,
  276, 407,
  276, 408,
  276, 409,
  276, 414,
  276, 416,
  276, 417,
  276, 418,
  276, 420,
  276, 422,
  276, 423,
  276, 424,
  276, 425,
  276, 427,
  276, 429,
  276, 432,
  276, 437,
  276, 438,
  276, 440,
  276, 442,
  276, 447,
  276, 448,
  276, 449,
  276, 450,
  276, 451,
  276, 452,
  276, 453,
  276, 454,
  276, 455,
  276, 459,
  276, 461,
  276, 462,
  276, 465,
  276, 466,
  276, 467,
  276, 468,
  276, 469,
  276, 471,
  276, 474,
  276, 478,
  276, 480,
  276, 481,
  276, 486,
  276, 487,
  276, 488,
  276, 490,
  276, 493,
  276, 495,
  276, 497,
  277, 278,
  277, 280,
  277, 281,
  277, 284,
  277, 287,
  277, 292,
  277, 298,
  277, 300,
  277, 307,
  277, 309,
  277, 310,
  277, 311,
  277, 312,
  277, 315,
  277, 317,
  277, 318,
  277, 320,
  277, 321,
  277, 322,
  277, 324,
  277, 332,
  277, 336,
  277, 339,
  277, 340,
  277, 344,
  277, 345,
  277, 346,
  277, 348,
  277, 350,
  277, 354,
  277, 357,
  277, 361,
  277, 362,
  277, 363,
  277, 364,
  277, 369,
  277, 370,
  277, 373,
  277, 374,
  277, 375,
  277, 377,
  277, 378,
  277, 380,
  277, 382,
  277, 383,
  277, 384,
  277, 385,
  277, 386,
  277, 390,
  277, 391,
  277, 392,
  277, 393,
  277, 397,
  277, 398,
  277, 402,
  277, 403,
  277, 405,
  277, 406,
  277, 407,
  277, 408,
  277, 409,
  277, 414,
  277, 415,
  277, 416,
  277, 419,
  277, 420,
  277, 421,
  277, 422,
  277, 423,
  277, 424,
  277, 426,
  277, 427,
  277, 428,
  277, 429,
  277, 430,
  277, 433,
  277, 434,
  277, 438,
  277, 439,
  277, 441,
  277, 443,
  277, 444,
  277, 445,
  277, 446,
  277, 448,
  277, 449,
  277, 450,
  277, 452,
  277, 453,
  277, 455,
  277, 456,
  277, 458,
  277, 459,
  277, 460,
  277, 462,
  277, 465,
  277, 467,
  277, 468,
  277, 469,
  277, 470,
  277, 471,
  277, 472,
  277, 474,
  277, 479,
  277, 480,
  277, 481,
  277, 482,
  277, 485,
  277, 486,
  277, 488,
  277, 490,
  277, 491,
  277, 495,
  277, 498,
  277, 500,
  278, 279,
  278, 280,
  278, 282,
  278, 285,
  278, 286,
  278, 288,
  278, 291,
  278, 293,
  278, 295,
  278, 296,
  278, 297,
  278, 299,
  278, 304,
  278, 307,
  278, 312,
  278, 313,
  278, 315,
  278, 316,
  278, 321,
  278, 327,
  278, 330,
  278, 331,
  278, 332,
  278, 334,
  278, 340,
  278, 342,
  278, 346,
  278, 347,
  278, 349,
  278, 350,
  278, 351,
  278, 354,
  278, 356,
  278, 357,
  278, 360,
  278, 362,
  278, 363,
  278, 365,
  278, 368,
  278, 372,
  278, 379,
  278, 382,
  278, 385,
  278, 386,
  278, 387,
  278, 388,
  278, 391,
  278, 394,
  278, 395,
  278, 396,
  278, 398,
  278, 399,
  278, 400,
  278, 401,
  278, 402,
  278, 404,
  278, 405,
  278, 408,
  278, 413,
  278, 414,
  278, 415,
  278, 419,
  278, 420,
  278, 421,
  278, 423,
  278, 424,
  278, 425,
  278, 428,
  278, 429,
  278, 431,
  278, 432,
  278, 433,
  278, 438,
  278, 444,
  278, 445,
  278, 446,
  278, 448,
  278, 453,
  278, 460,
  278, 462,
  278, 465,
  278, 466,
  278, 469,
  278, 470,
  278, 474,
  278, 475,
  278, 476,
  278, 477,
  278, 478,
  278, 479,
  278, 480,
  278, 482,
  278, 488,
  278, 490,
  278, 491,
  278, 492,
  278, 493,
  278, 494,
  278, 497,
  278, 499,
  278, 500,
  279, 280,
  279, 281,
  279, 282,
  279, 283,
  279, 284,
  279, 286,
  279, 287,
  279, 289,
  279, 290,
  279, 292,
  279, 293,
  279, 294,
  279, 298,
  279, 303,
  279, 304,
  279, 305,
  279, 306,
  279, 307,
  279, 309,
  279, 311,
  279, 315,
  279, 317,
  279, 319,
  279, 323,
  279, 325,
  279, 326,
  279, 327,
  279, 328,
  279, 331,
  279, 332,
  279, 335,
  279, 338,
  279, 341,
  279, 344,
  279, 345,
  279, 346,
  279, 348,
  279, 349,
  279, 351,
  279, 352,
  279, 353,
  279, 355,
  279, 356,
  279, 358,
  279, 359,
  279, 363,
  279, 366,
  279, 371,
  279, 373,
  279, 374,
  279, 375,
  279, 377,
  279, 378,
  279, 384,
  279, 385,
  279, 386,
  279, 387,
  279, 388,
  279, 392,
  279, 393,
  279, 394,
  279, 396,
  279, 398,
  279, 399,
  279, 401,
  279, 402,
  279, 403,
  279, 404,
  279, 405,
  279, 407,
  279, 408,
  279, 409,
  279, 411,
  279, 412,
  279, 415,
  279, 416,
  279, 417,
  279, 419,
  279, 420,
  279, 421,
  279, 422,
  279, 423,
  279, 424,
  279, 425,
  279, 429,
  279, 431,
  279, 432,
  279, 433,
  279, 437,
  279, 439,
  279, 440,
  279, 441,
  279, 442,
  279, 444,
  279, 445,
  279, 446,
  279, 448,
  279, 449,
  279, 452,
  279, 456,
  279, 457,
  279, 459,
  279, 460,
  279, 462,
  279, 463,
  279, 465,
  279, 466,
  279, 472,
  279, 474,
  279, 475,
  279, 476,
  279, 477,
  279, 482,
  279, 483,
  279, 485,
  279, 488,
  279, 491,
  279, 493,
  279, 494,
  279, 499,
  280, 291,
  280, 292,
  280, 293,
  280, 294,
  280, 297,
  280, 299,
  280, 300,
  280, 301,
  280, 303,
  280, 304,
  280, 305,
  280, 308,
  280, 311,
  280, 313,
  280, 314,
  280, 316,
  280, 317,
  280, 320,
  280, 324,
  280, 326,
  280, 327,
  280, 328,
  280, 329,
  280, 331,
  280, 332,
  280, 334,
  280, 335,
  280, 338,
  280, 341,
  280, 342,
  280, 346,
  280, 348,
  280, 350,
  280, 351,
  280, 352,
  280, 355,
  280, 360,
  280, 361,
  280, 362,
  280, 365,
  280, 366,
  280, 368,
  280, 369,
  280, 370,
  280, 371,
  280, 372,
  280, 373,
  280, 374,
  280, 378,
  280, 383,
  280, 384,
  280, 388,
  280, 389,
  280, 392,
  280, 396,
  280, 398,
  280, 400,
  280, 401,
  280, 402,
  280, 403,
  280, 405,
  280, 407,
  280, 409,
  280, 410,
  280, 412,
  280, 413,
  280, 415,
  280, 416,
  280, 417,
  280, 420,
  280, 421,
  280, 424,
  280, 428,
  280, 430,
  280, 431,
  280, 432,
  280, 433,
  280, 437,
  280, 445,
  280, 446,
  280, 447,
  280, 449,
  280, 452,
  280, 454,
  280, 457,
  280, 458,
  280, 461,
  280, 463,
  280, 465,
  280, 466,
  280, 467,
  280, 469,
  280, 471,
  280, 472,
  280, 475,
  280, 476,
  280, 479,
  280, 480,
  280, 484,
  280, 486,
  280, 487,
  280, 489,
  280, 497,
  280, 498,
  280, 499,
  281, 282,
  281, 283,
  281, 286,
  281, 287,
  281, 289,
  281, 291,
  281, 292,
  281, 293,
  281, 294,
  281, 295,
  281, 296,
  281, 301,
  281, 303,
  281, 304,
  281, 308,
  281, 309,
  281, 310,
  281, 312,
  281, 315,
  281, 317,
  281, 320,
  281, 323,
  281, 327,
  281, 328,
  281, 329,
  281, 331,
  281, 332,
  281, 333,
  281, 341,
  281, 342,
  281, 343,
  281, 347,
  281, 351,
  281, 352,
  281, 353,
  281, 354,
  281, 355,
  281, 356,
  281, 358,
  281, 361,
  281, 370,
  281, 372,
  281, 373,
  281, 374,
  281, 375,
  281, 376,
  281, 377,
  281, 378,
  281, 383,
  281, 385,
  281, 387,
  281, 391,
  281, 392,
  281, 393,
  281, 394,
  281, 395,
  281, 399,
  281, 400,
  281, 401,
  281, 404,
  281, 406,
  281, 407,
  281, 410,
  281, 411,
  281, 416,
  281, 417,
  281, 418,
  281, 423,
  281, 425,
  281, 426,
  281, 430,
  281, 432,
  281, 433,
  281, 434,
  281, 437,
  281, 441,
  281, 442,
  281, 445,
  281, 448,
  281, 449,
  281, 453,
  281, 454,
  281, 455,
  281, 460,
  281, 461,
  281, 462,
  281, 463,
  281, 464,
  281, 466,
  281, 468,
  281, 470,
  281, 473,
  281, 476,
  281, 477,
  281, 478,
  281, 479,
  281, 481,
  281, 482,
  281, 488,
  281, 493,
  281, 499,
  281, 500,
  282, 283,
  282, 284,
  282, 285,
  282, 287,
  282, 291,
  282, 292,
  282, 295,
  282, 296,
  282, 302,
  282, 305,
  282, 309,
  282, 311,
  282, 316,
  282, 317,
  282, 318,
  282, 320,
  282, 321,
  282, 324,
  282, 325,
  282, 326,
  282, 329,
  282, 331,
  282, 332,
  282, 334,
  282, 336,
  282, 341,
  282, 342,
  282, 345,
  282, 347,
  282, 348,
  282, 349,
  282, 350,
  282, 352,
  282, 356,
  282, 357,
  282, 358,
  282, 360,
  282, 361,
  282, 363,
  282, 365,
  282, 366,
  282, 369,
  282, 371,
  282, 372,
  282, 373,
  282, 375,
  282, 378,
  282, 381,
  282, 383,
  282, 384,
  282, 386,
  282, 387,
  282, 388,
  282, 389,
  282, 390,
  282, 391,
  282, 393,
  282, 396,
  282, 397,
  282, 398,
  282, 399,
  282, 401,
  282, 402,
  282, 404,
  282, 406,
  282, 407,
  282, 408,
  282, 411,
  282, 412,
  282, 413,
  282, 415,
  282, 416,
  282, 420,
  282, 421,
  282, 422,
  282, 427,
  282, 428,
  282, 429,
  282, 431,
  282, 432,
  282, 434,
  282, 436,
  282, 441,
  282, 442,
  282, 444,
  282, 446,
  282, 449,
  282, 450,
  282, 451,
  282, 455,
  282, 457,
  282, 459,
  282, 461,
  282, 464,
  282, 465,
  282, 466,
  282, 467,
  282, 469,
  282, 470,
  282, 471,
  282, 474,
  282, 477,
  282, 478,
  282, 482,
  282, 483,
  282, 485,
  282, 486,
  282, 490,
  282, 491,
  282, 493,
  282, 495,
  282, 498,
  283, 285,
  283, 286,
  283, 287,
  283, 289,
  283, 291,
  283, 295,
  283, 298,
  283, 299,
  283, 300,
  283, 303,
  283, 304,
  283, 305,
  283, 306,
  283, 308,
  283, 314,
  283, 315,
  283, 323,
  283, 324,
  283, 325,
  283, 326,
  283, 327,
  283, 330,
  283, 332,
  283, 333,
  283, 334,
  283, 335,
  283, 337,
  283, 342,
  283, 343,
  283, 347,
  283, 348,
  283, 349,
  283, 351,
  283, 352,
  283, 354,
  283, 355,
  283, 356,
  283, 357,
  283, 358,
  283, 359,
  283, 361,
  283, 362,
  283, 364,
  283, 365,
  283, 366,
  283, 367,
  283, 371,
  283, 372,
  283, 374,
  283, 377,
  283, 380,
  283, 382,
  283, 383,
  283, 384,
  283, 388,
  283, 392,
  283, 393,
  283, 395,
  283, 396,
  283, 398,
  283, 399,
  283, 404,
  283, 407,
  283, 409,
  283, 413,
  283, 414,
  283, 415,
  283, 416,
  283, 417,
  283, 418,
  283, 420,
  283, 422,
  283, 424,
  283, 434,
  283, 437,
  283, 438,
  283, 439,
  283, 441,
  283, 442,
  283, 444,
  283, 449,
  283, 450,
  283, 451,
  283, 453,
  283, 455,
  283, 456,
  283, 457,
  283, 460,
  283, 462,
  283, 464,
  283, 465,
  283, 468,
  283, 469,
  283, 470,
  283, 474,
  283, 477,
  283, 478,
  283, 480,
  283, 482,
  283, 484,
  283, 487,
  283, 488,
  283, 491,
  283, 492,
  283, 493,
  283, 494,
  283, 495,
  283, 498,
  283, 499,
  284, 285,
  284, 288,
  284, 292,
  284, 294,
  284, 295,
  284, 296,
  284, 297,
  284, 298,
  284, 299,
  284, 303,
  284, 304,
  284, 307,
  284, 309,
  284, 310,
  284, 311,
  284, 315,
  284, 318,
  284, 321,
  284, 322,
  284, 323,
  284, 325,
  284, 327,
  284, 329,
  284, 334,
  284, 336,
  284, 337,
  284, 340,
  284, 341,
  284, 342,
  284, 346,
  284, 354,
  284, 357,
  284, 358,
  284, 359,
  284, 360,
  284, 364,
  284, 365,
  284, 367,
  284, 368,
  284, 369,
  284, 371,
  284, 374,
  284, 375,
  284, 376,
  284, 381,
  284, 382,
  284, 383,
  284, 385,
  284, 386,
  284, 387,
  284, 389,
  284, 391,
  284, 392,
  284, 399,
  284, 401,
  284, 403,
  284, 405,
  284, 406,
  284, 408,
  284, 409,
  284, 411,
  284, 413,
  284, 414,
  284, 415,
  284, 417,
  284, 419,
  284, 423,
  284, 424,
  284, 428,
  284, 429,
  284, 430,
  284, 431,
  284, 433,
  284, 435,
  284, 436,
  284, 438,
  284, 439,
  284, 440,
  284, 441,
  284, 442,
  284, 444,
  284, 446,
  284, 447,
  284, 448,
  284, 449,
  284, 452,
  284, 453,
  284, 456,
  284, 458,
  284, 461,
  284, 462,
  284, 464,
  284, 465,
  284, 466,
  284, 468,
  284, 469,
  284, 471,
  284, 472,
  284, 473,
  284, 474,
  284, 477,
  284, 480,
  284, 483,
  284, 490,
  284, 495,
  284, 496,
  284, 497,
  284, 498,
  285, 286,
  285, 287,
  285, 289,
  285, 291,
  285, 293,
  285, 295,
  285, 296,
  285, 298,
  285, 301,
  285, 304,
  285, 305,
  285, 306,
  285, 307,
  285, 308,
  285, 309,
  285, 315,
  285, 319,
  285, 320,
  285, 321,
  285, 323,
  285, 326,
  285, 328,
  285, 330,
  285, 332,
  285, 334,
  285, 336,
  285, 338,
  285, 339,
  285, 342,
  285, 343,
  285, 345,
  285, 346,
  285, 347,
  285, 351,
  285, 352,
  285, 353,
  285, 354,
  285, 356,
  285, 357,
  285, 358,
  285, 360,
  285, 365,
  285, 366,
  285, 368,
  285, 369,
  285, 370,
  285, 374,
  285, 377,
  285, 383,
  285, 384,
  285, 385,
  285, 392,
  285, 393,
  285, 397,
  285, 398,
  285, 402,
  285, 404,
  285, 406,
  285, 407,
  285, 408,
  285, 410,
  285, 413,
  285, 414,
  285, 416,
  285, 417,
  285, 420,
  285, 421,
  285, 422,
  285, 428,
  285, 429,
  285, 430,
  285, 431,
  285, 433,
  285, 435,
  285, 441,
  285, 442,
  285, 444,
  285, 445,
  285, 447,
  285, 452,
  285, 454,
  285, 456,
  285, 457,
  285, 461,
  285, 463,
  285, 464,
  285, 465,
  285, 466,
  285, 467,
  285, 470,
  285, 473,
  285, 474,
  285, 476,
  285, 480,
  285, 481,
  285, 482,
  285, 489,
  285, 491,
  285, 495,
  285, 497,
  285, 500,
  286, 287,
  286, 290,
  286, 291,
  286, 292,
  286, 293,
  286, 299,
  286, 300,
  286, 301,
  286, 302,
  286, 304,
  286, 305,
  286, 306,
  286, 307,
  286, 309,
  286, 310,
  286, 311,
  286, 312,
  286, 314,
  286, 318,
  286, 319,
  286, 323,
  286, 324,
  286, 327,
  286, 328,
  286, 329,
  286, 331,
  286, 334,
  286, 335,
  286, 339,
  286, 340,
  286, 342,
  286, 343,
  286, 344,
  286, 348,
  286, 351,
  286, 353,
  286, 354,
  286, 357,
  286, 358,
  286, 360,
  286, 363,
  286, 365,
  286, 366,
  286, 368,
  286, 369,
  286, 371,
  286, 374,
  286, 375,
  286, 376,
  286, 377,
  286, 380,
  286, 381,
  286, 383,
  286, 385,
  286, 387,
  286, 392,
  286, 395,
  286, 397,
  286, 400,
  286, 401,
  286, 402,
  286, 404,
  286, 407,
  286, 408,
  286, 409,
  286, 413,
  286, 414,
  286, 419,
  286, 420,
  286, 421,
  286, 422,
  286, 424,
  286, 425,
  286, 427,
  286, 428,
  286, 430,
  286, 431,
  286, 435,
  286, 436,
  286, 437,
  286, 439,
  286, 441,
  286, 444,
  286, 446,
  286, 447,
  286, 450,
  286, 451,
  286, 454,
  286, 456,
  286, 458,
  286, 461,
  286, 462,
  286, 463,
  286, 464,
  286, 465,
  286, 466,
  286, 467,
  286, 468,
  286, 469,
  286, 472,
  286, 473,
  286, 475,
  286, 477,
  286, 478,
  286, 484,
  286, 485,
  286, 486,
  286, 487,
  286, 489,
  286, 490,
  286, 491,
  286, 492,
  286, 493,
  286, 498,
  286, 499,
  286, 500,
  287, 288,
  287, 292,
  287, 293,
  287, 298,
  287, 300,
  287, 303,
  287, 304,
  287, 305,
  287, 306,
  287, 308,
  287, 310,
  287, 311,
  287, 314,
  287, 315,
  287, 320,
  287, 322,
  287, 324,
  287, 328,
  287, 329,
  287, 330,
  287, 332,
  287, 334,
  287, 335,
  287, 336,
  287, 337,
  287, 338,
  287, 340,
  287, 342,
  287, 344,
  287, 346,
  287, 347,
  287, 354,
  287, 360,
  287, 362,
  287, 364,
  287, 366,
  287, 373,
  287, 375,
  287, 376,
  287, 379,
  287, 380,
  287, 381,
  287, 382,
  287, 387,
  287, 388,
  287, 389,
  287, 394,
  287, 395,
  287, 397,
  287, 399,
  287, 400,
  287, 402,
  287, 406,
  287, 408,
  287, 409,
  287, 415,
  287, 417,
  287, 418,
  287, 420,
  287, 422,
  287, 423,
  287, 424,
  287, 432,
  287, 439,
  287, 440,
  287, 441,
  287, 442,
  287, 443,
  287, 445,
  287, 448,
  287, 452,
  287, 457,
  287, 458,
  287, 460,
  287, 461,
  287, 463,
  287, 464,
  287, 467,
  287, 468,
  287, 469,
  287, 470,
  287, 471,
  287, 472,
  287, 474,
  287, 475,
  287, 476,
  287, 479,
  287, 482,
  287, 484,
  287, 485,
  287, 487,
  287, 490,
  287, 494,
  287, 495,
  287, 498,
  287, 499,
  287, 500,
  288, 289,
  288, 290,
  288, 294,
  288, 295,
  288, 296,
  288, 297,
  288, 299,
  288, 300,
  288, 301,
  288, 302,
  288, 303,
  288, 305,
  288, 306,
  288, 308,
  288, 309,
  288, 314,
  288, 317,
  288, 320,
  288, 322,
  288, 326,
  288, 328,
  288, 329,
  288, 330,
  288, 331,
  288, 332,
  288, 335,
  288, 337,
  288, 338,
  288, 339,
  288, 342,
  288, 344,
  288, 346,
  288, 347,
  288, 348,
  288, 352,
  288, 357,
  288, 358,
  288, 359,
  288, 362,
  288, 363,
  288, 364,
  288, 366,
  288, 371,
  288, 372,
  288, 374,
  288, 375,
  288, 376,
  288, 379,
  288, 380,
  288, 383,
  288, 384,
  288, 385,
  288, 386,
  288, 389,
  288, 393,
  288, 394,
  288, 395,
  288, 396,
  288, 397,
  288, 398,
  288, 400,
  288, 401,
  288, 405,
  288, 406,
  288, 407,
  288, 408,
  288, 412,
  288, 414,
  288, 416,
  288, 418,
  288, 420,
  288, 421,
  288, 423,
  288, 424,
  288, 426,
  288, 428,
  288, 430,
  288, 432,
  288, 433,
  288, 435,
  288, 437,
  288, 440,
  288, 442,
  288, 445,
  288, 449,
  288, 450,
  288, 451,
  288, 453,
  288, 454,
  288, 455,
  288, 458,
  288, 459,
  288, 460,
  288, 462,
  288, 463,
  288, 465,
  288, 468,
  288, 473,
  288, 474,
  288, 478,
  288, 480,
  288, 484,
  288, 487,
  288, 488,
  288, 489,
  288, 490,
  288, 493,
  288, 494,
  288, 495,
  288, 497,
  288, 499,
  288, 500,
  289, 290,
  289, 295,
  289, 296,
  289, 302,
  289, 304,
  289, 305,
  289, 306,
  289, 307,
  289, 309,
  289, 311,
  289, 315,
  289, 319,
  289, 323,
  289, 324,
  289, 325,
  289, 328,
  289, 329,
  289, 331,
  289, 333,
  289, 334,
  289, 336,
  289, 339,
  289, 341,
  289, 343,
  289, 345,
  289, 346,
  289, 348,
  289, 350,
  289, 351,
  289, 352,
  289, 358,
  289, 359,
  289, 364,
  289, 365,
  289, 372,
  289, 374,
  289, 377,
  289, 379,
  289, 380,
  289, 381,
  289, 385,
  289, 386,
  289, 387,
  289, 388,
  289, 389,
  289, 394,
  289, 398,
  289, 399,
  289, 403,
  289, 407,
  289, 414,
  289, 417,
  289, 418,
  289, 420,
  289, 421,
  289, 422,
  289, 424,
  289, 425,
  289, 426,
  289, 427,
  289, 428,
  289, 430,
  289, 431,
  289, 433,
  289, 434,
  289, 435,
  289, 436,
  289, 438,
  289, 440,
  289, 442,
  289, 443,
  289, 444,
  289, 446,
  289, 449,
  289, 452,
  289, 454,
  289, 456,
  289, 457,
  289, 459,
  289, 460,
  289, 462,
  289, 465,
  289, 466,
  289, 468,
  289, 469,
  289, 470,
  289, 472,
  289, 473,
  289, 474,
  289, 479,
  289, 480,
  289, 481,
  289, 482,
  289, 483,
  289, 485,
  289, 487,
  289, 489,
  289, 490,
  289, 491,
  289, 492,
  289, 499,
  290, 291,
  290, 294,
  290, 295,
  290, 299,
  290, 300,
  290, 302,
  290, 304,
  290, 306,
  290, 307,
  290, 309,
  290, 310,
  290, 311,
  290, 312,
  290, 313,
  290, 314,
  290, 317,
  290, 318,
  290, 319,
  290, 320,
  290, 321,
  290, 322,
  290, 323,
  290, 324,
  290, 326,
  290, 327,
  290, 329,
  290, 330,
  290, 331,
  290, 334,
  290, 336,
  290, 339,
  290, 340,
  290, 341,
  290, 342,
  290, 343,
  290, 346,
  290, 347,
  290, 348,
  290, 350,
  290, 351,
  290, 353,
  290, 355,
  290, 358,
  290, 360,
  290, 361,
  290, 363,
  290, 372,
  290, 375,
  290, 377,
  290, 379,
  290, 380,
  290, 381,
  290, 383,
  290, 385,
  290, 386,
  290, 387,
  290, 390,
  290, 391,
  290, 392,
  290, 397,
  290, 398,
  290, 399,
  290, 401,
  290, 402,
  290, 404,
  290, 407,
  290, 411,
  290, 412,
  290, 413,
  290, 414,
  290, 423,
  290, 424,
  290, 425,
  290, 427,
  290, 429,
  290, 432,
  290, 434,
  290, 437,
  290, 439,
  290, 441,
  290, 442,
  290, 444,
  290, 447,
  290, 449,
  290, 451,
  290, 452,
  290, 455,
  290, 456,
  290, 458,
  290, 459,
  290, 460,
  290, 461,
  290, 462,
  290, 463,
  290, 464,
  290, 465,
  290, 467,
  290, 473,
  290, 474,
  290, 475,
  290, 476,
  290, 477,
  290, 479,
  290, 482,
  290, 483,
  290, 485,
  290, 486,
  290, 488,
  290, 489,
  290, 491,
  290, 492,
  290, 495,
  290, 499,
  291, 296,
  291, 301,
  291, 302,
  291, 303,
  291, 305,
  291, 307,
  291, 312,
  291, 314,
  291, 316,
  291, 317,
  291, 319,
  291, 320,
  291, 322,
  291, 324,
  291, 327,
  291, 328,
  291, 329,
  291, 332,
  291, 337,
  291, 339,
  291, 340,
  291, 341,
  291, 342,
  291, 343,
  291, 344,
  291, 345,
  291, 348,
  291, 349,
  291, 350,
  291, 353,
  291, 354,
  291, 356,
  291, 357,
  291, 358,
  291, 359,
  291, 360,
  291, 363,
  291, 366,
  291, 370,
  291, 371,
  291, 372,
  291, 373,
  291, 375,
  291, 376,
  291, 377,
  291, 381,
  291, 382,
  291, 383,
  291, 385,
  291, 386,
  291, 388,
  291, 389,
  291, 391,
  291, 392,
  291, 394,
  291, 395,
  291, 398,
  291, 403,
  291, 404,
  291, 406,
  291, 410,
  291, 411,
  291, 414,
  291, 416,
  291, 417,
  291, 418,
  291, 419,
  291, 423,
  291, 425,
  291, 426,
  291, 428,
  291, 429,
  291, 430,
  291, 431,
  291, 433,
  291, 434,
  291, 435,
  291, 436,
  291, 437,
  291, 438,
  291, 439,
  291, 440,
  291, 441,
  291, 443,
  291, 444,
  291, 445,
  291, 447,
  291, 448,
  291, 451,
  291, 453,
  291, 454,
  291, 456,
  291, 457,
  291, 460,
  291, 463,
  291, 465,
  291, 466,
  291, 467,
  291, 468,
  291, 469,
  291, 473,
  291, 475,
  291, 476,
  291, 477,
  291, 478,
  291, 479,
  291, 481,
  291, 482,
  291, 483,
  291, 484,
  291, 485,
  291, 486,
  291, 487,
  291, 492,
  291, 497,
  291, 498,
  292, 293,
  292, 296,
  292, 297,
  292, 300,
  292, 302,
  292, 303,
  292, 304,
  292, 306,
  292, 309,
  292, 311,
  292, 312,
  292, 313,
  292, 314,
  292, 317,
  292, 321,
  292, 323,
  292, 326,
  292, 330,
  292, 332,
  292, 334,
  292, 335,
  292, 336,
  292, 338,
  292, 340,
  292, 342,
  292, 345,
  292, 346,
  292, 347,
  292, 350,
  292, 353,
  292, 354,
  292, 355,
  292, 358,
  292, 359,
  292, 360,
  292, 361,
  292, 363,
  292, 365,
  292, 369,
  292, 370,
  292, 371,
  292, 372,
  292, 376,
  292, 378,
  292, 379,
  292, 382,
  292, 386,
  292, 388,
  292, 390,
  292, 393,
  292, 394,
  292, 396,
  292, 397,
  292, 398,
  292, 400,
  292, 401,
  292, 402,
  292, 404,
  292, 405,
  292, 407,
  292, 409,
  292, 410,
  292, 411,
  292, 413,
  292, 415,
  292, 418,
  292, 419,
  292, 420,
  292, 422,
  292, 423,
  292, 427,
  292, 430,
  292, 431,
  292, 432,
  292, 433,
  292, 434,
  292, 436,
  292, 440,
  292, 441,
  292, 446,
  292, 448,
  292, 449,
  292, 451,
  292, 453,
  292, 454,
  292, 458,
  292, 461,
  292, 462,
  292, 464,
  292, 470,
  292, 471,
  292, 472,
  292, 475,
  292, 477,
  292, 478,
  292, 479,
  292, 483,
  292, 485,
  292, 486,
  292, 488,
  292, 489,
  292, 493,
  292, 494,
  292, 495,
  292, 497,
  293, 295,
  293, 299,
  293, 300,
  293, 303,
  293, 305,
  293, 306,
  293, 307,
  293, 309,
  293, 312,
  293, 314,
  293, 318,
  293, 323,
  293, 327,
  293, 329,
  293, 332,
  293, 333,
  293, 335,
  293, 339,
  293, 340,
  293, 341,
  293, 342,
  293, 345,
  293, 346,
  293, 347,
  293, 352,
  293, 353,
  293, 354,
  293, 356,
  293, 357,
  293, 358,
  293, 364,
  293, 367,
  293, 370,
  293, 371,
  293, 378,
  293, 379,
  293, 380,
  293, 384,
  293, 386,
  293, 387,
  293, 388,
  293, 389,
  293, 393,
  293, 394,
  293, 395,
  293, 397,
  293, 399,
  293, 400,
  293, 402,
  293, 407,
  293, 411,
  293, 412,
  293, 413,
  293, 414,
  293, 415,
  293, 419,
  293, 420,
  293, 421,
  293, 422,
  293, 424,
  293, 427,
  293, 431,
  293, 432,
  293, 433,
  293, 434,
  293, 435,
  293, 436,
  293, 438,
  293, 440,
  293, 441,
  293, 443,
  293, 445,
  293, 446,
  293, 447,
  293, 451,
  293, 452,
  293, 454,
  293, 457,
  293, 459,
  293, 460,
  293, 462,
  293, 464,
  293, 466,
  293, 467,
  293, 469,
  293, 472,
  293, 473,
  293, 475,
  293, 477,
  293, 478,
  293, 482,
  293, 484,
  293, 485,
  293, 488,
  293, 489,
  293, 490,
  293, 491,
  293, 493,
  293, 499,
  294, 295,
  294, 297,
  294, 298,
  294, 299,
  294, 300,
  294, 301,
  294, 304,
  294, 305,
  294, 308,
  294, 309,
  294, 311,
  294, 312,
  294, 313,
  294, 314,
  294, 319,
  294, 322,
  294, 323,
  294, 325,
  294, 329,
  294, 330,
  294, 333,
  294, 334,
  294, 336,
  294, 337,
  294, 340,
  294, 341,
  294, 342,
  294, 344,
  294, 347,
  294, 348,
  294, 350,
  294, 351,
  294, 355,
  294, 356,
  294, 358,
  294, 359,
  294, 360,
  294, 363,
  294, 364,
  294, 365,
  294, 367,
  294, 369,
  294, 370,
  294, 372,
  294, 373,
  294, 374,
  294, 375,
  294, 376,
  294, 378,
  294, 379,
  294, 381,
  294, 386,
  294, 389,
  294, 391,
  294, 392,
  294, 394,
  294, 395,
  294, 397,
  294, 399,
  294, 400,
  294, 401,
  294, 403,
  294, 404,
  294, 405,
  294, 407,
  294, 409,
  294, 410,
  294, 412,
  294, 413,
  294, 416,
  294, 421,
  294, 422,
  294, 423,
  294, 424,
  294, 425,
  294, 428,
  294, 429,
  294, 432,
  294, 433,
  294, 441,
  294, 442,
  294, 443,
  294, 444,
  294, 446,
  294, 447,
  294, 448,
  294, 449,
  294, 452,
  294, 453,
  294, 454,
  294, 455,
  294, 456,
  294, 457,
  294, 458,
  294, 459,
  294, 467,
  294, 470,
  294, 471,
  294, 474,
  294, 475,
  294, 477,
  294, 478,
  294, 481,
  294, 482,
  294, 483,
  294, 486,
  294, 488,
  294, 489,
  294, 490,
  294, 491,
  294, 493,
  294, 494,
  294, 496,
  294, 497,
  295, 296,
  295, 298,
  295, 300,
  295, 301,
  295, 308,
  295, 309,
  295, 310,
  295, 313,
  295, 314,
  295, 316,
  295, 318,
  295, 320,
  295, 327,
  295, 331,
  295, 333,
  295, 337,
  295, 339,
  295, 340,
  295, 342,
  295, 343,
  295, 346,
  295, 349,
  295, 352,
  295, 357,
  295, 360,
  295, 362,
  295, 363,
  295, 365,
  295, 368,
  295, 370,
  295, 371,
  295, 373,
  295, 375,
  295, 381,
  295, 383,
  295, 384,
  295, 387,
  295, 389,
  295, 392,
  295, 394,
  295, 395,
  295, 396,
  295, 397,
  295, 398,
  295, 399,
  295, 400,
  295, 401,
  295, 402,
  295, 403,
  295, 404,
  295, 406,
  295, 407,
  295, 409,
  295, 412,
  295, 413,
  295, 414,
  295, 415,
  295, 419,
  295, 421,
  295, 422,
  295, 425,
  295, 427,
  295, 428,
  295, 432,
  295, 437,
  295, 438,
  295, 441,
  295, 442,
  295, 443,
  295, 445,
  295, 446,
  295, 447,
  295, 448,
  295, 449,
  295, 451,
  295, 456,
  295, 457,
  295, 458,
  295, 459,
  295, 460,
  295, 461,
  295, 462,
  295, 463,
  295, 465,
  295, 466,
  295, 468,
  295, 470,
  295, 471,
  295, 474,
  295, 477,
  295, 478,
  295, 479,
  295, 482,
  295, 484,
  295, 485,
  295, 486,
  295, 489,
  295, 491,
  295, 492,
  295, 493,
  295, 494,
  295, 496,
  295, 498,
  295, 499,
  296, 298,
  296, 299,
  296, 300,
  296, 301,
  296, 302,
  296, 303,
  296, 305,
  296, 310,
  296, 311,
  296, 312,
  296, 313,
  296, 314,
  296, 315,
  296, 316,
  296, 318,
  296, 319,
  296, 321,
  296, 322,
  296, 323,
  296, 324,
  296, 325,
  296, 326,
  296, 327,
  296, 328,
  296, 330,
  296, 332,
  296, 333,
  296, 334,
  296, 335,
  296, 337,
  296, 339,
  296, 340,
  296, 342,
  296, 343,
  296, 344,
  296, 346,
  296, 350,
  296, 351,
  296, 352,
  296, 353,
  296, 355,
  296, 356,
  296, 360,
  296, 362,
  296, 366,
  296, 367,
  296, 368,
  296, 370,
  296, 374,
  296, 375,
  296, 377,
  296, 378,
  296, 381,
  296, 385,
  296, 387,
  296, 388,
  296, 389,
  296, 390,
  296, 392,
  296, 393,
  296, 394,
  296, 396,
  296, 397,
  296, 398,
  296, 401,
  296, 402,
  296, 403,
  296, 404,
  296, 405,
  296, 407,
  296, 408,
  296, 410,
  296, 418,
  296, 420,
  296, 423,
  296, 427,
  296, 429,
  296, 430,
  296, 434,
  296, 435,
  296, 437,
  296, 438,
  296, 440,
  296, 448,
  296, 450,
  296, 451,
  296, 452,
  296, 453,
  296, 454,
  296, 458,
  296, 461,
  296, 462,
  296, 464,
  296, 465,
  296, 467,
  296, 468,
  296, 470,
  296, 471,
  296, 473,
  296, 476,
  296, 477,
  296, 479,
  296, 481,
  296, 482,
  296, 484,
  296, 485,
  296, 486,
  296, 487,
  296, 488,
  296, 489,
  296, 490,
  296, 491,
  296, 496,
  296, 497,
  296, 498,
  296, 500,
  297, 298,
  297, 301,
  297, 303,
  297, 304,
  297, 310,
  297, 312,
  297, 313,
  297, 315,
  297, 316,
  297, 317,
  297, 318,
  297, 320,
  297, 323,
  297, 325,
  297, 327,
  297, 328,
  297, 331,
  297, 332,
  297, 335,
  297, 338,
  297, 341,
  297, 343,
  297, 345,
  297, 350,
  297, 352,
  297, 354,
  297, 355,
  297, 356,
  297, 360,
  297, 361,
  297, 362,
  297, 364,
  297, 372,
  297, 376,
  297, 378,
  297, 379,
  297, 383,
  297, 387,
  297, 389,
  297, 390,
  297, 391,
  297, 393,
  297, 397,
  297, 398,
  297, 401,
  297, 403,
  297, 404,
  297, 408,
  297, 409,
  297, 410,
  297, 413,
  297, 416,
  297, 420,
  297, 421,
  297, 424,
  297, 426,
  297, 427,
  297, 428,
  297, 429,
  297, 430,
  297, 431,
  297, 434,
  297, 439,
  297, 440,
  297, 441,
  297, 442,
  297, 443,
  297, 447,
  297, 448,
  297, 449,
  297, 450,
  297, 451,
  297, 452,
  297, 455,
  297, 457,
  297, 458,
  297, 460,
  297, 467,
  297, 468,
  297, 469,
  297, 470,
  297, 472,
  297, 473,
  297, 474,
  297, 476,
  297, 478,
  297, 479,
  297, 480,
  297, 482,
  297, 489,
  297, 490,
  297, 492,
  297, 495,
  297, 497,
  297, 499,
  298, 300,
  298, 302,
  298, 303,
  298, 309,
  298, 310,
  298, 311,
  298, 313,
  298, 314,
  298, 318,
  298, 319,
  298, 322,
  298, 324,
  298, 325,
  298, 326,
  298, 327,
  298, 331,
  298, 332,
  298, 334,
  298, 335,
  298, 336,
  298, 337,
  298, 338,
  298, 339,
  298, 341,
  298, 345,
  298, 348,
  298, 351,
  298, 354,
  298, 356,
  298, 357,
  298, 358,
  298, 359,
  298, 362,
  298, 363,
  298, 365,
  298, 367,
  298, 369,
  298, 373,
  298, 375,
  298, 381,
  298, 385,
  298, 387,
  298, 388,
  298, 391,
  298, 396,
  298, 397,
  298, 398,
  298, 399,
  298, 401,
  298, 402,
  298, 404,
  298, 405,
  298, 406,
  298, 407,
  298, 408,
  298, 410,
  298, 411,
  298, 412,
  298, 413,
  298, 416,
  298, 418,
  298, 426,
  298, 428,
  298, 429,
  298, 430,
  298, 431,
  298, 433,
  298, 434,
  298, 436,
  298, 437,
  298, 438,
  298, 443,
  298, 444,
  298, 445,
  298, 446,
  298, 447,
  298, 449,
  298, 450,
  298, 451,
  298, 452,
  298, 454,
  298, 456,
  298, 457,
  298, 458,
  298, 462,
  298, 466,
  298, 467,
  298, 469,
  298, 471,
  298, 475,
  298, 477,
  298, 478,
  298, 479,
  298, 480,
  298, 481,
  298, 483,
  298, 484,
  298, 487,
  298, 489,
  298, 490,
  298, 491,
  298, 495,
  298, 496,
  298, 497,
  298, 500,
  299, 300,
  299, 301,
  299, 302,
  299, 303,
  299, 305,
  299, 309,
  299, 310,
  299, 311,
  299, 312,
  299, 313,
  299, 315,
  299, 316,
  299, 317,
  299, 318,
  299, 320,
  299, 321,
  299, 322,
  299, 323,
  299, 325,
  299, 327,
  299, 328,
  299, 330,
  299, 334,
  299, 335,
  299, 336,
  299, 337,
  299, 339,
  299, 340,
  299, 344,
  299, 345,
  299, 349,
  299, 351,
  299, 352,
  299, 353,
  299, 355,
  299, 356,
  299, 357,
  299, 360,
  299, 361,
  299, 362,
  299, 363,
  299, 365,
  299, 366,
  299, 368,
  299, 369,
  299, 370,
  299, 372,
  299, 374,
  299, 375,
  299, 378,
  299, 379,
  299, 380,
  299, 384,
  299, 387,
  299, 389,
  299, 390,
  299, 391,
  299, 392,
  299, 393,
  299, 394,
  299, 397,
  299, 398,
  299, 401,
  299, 406,
  299, 407,
  299, 408,
  299, 413,
  299, 415,
  299, 416,
  299, 418,
  299, 419,
  299, 422,
  299, 426,
  299, 427,
  299, 429,
  299, 431,
  299, 432,
  299, 436,
  299, 438,
  299, 439,
  299, 441,
  299, 442,
  299, 445,
  299, 447,
  299, 448,
  299, 452,
  299, 453,
  299, 455,
  299, 457,
  299, 458,
  299, 459,
  299, 460,
  299, 462,
  299, 464,
  299, 466,
  299, 467,
  299, 468,
  299, 471,
  299, 472,
  299, 474,
  299, 475,
  299, 476,
  299, 477,
  299, 483,
  299, 485,
  299, 487,
  299, 493,
  299, 498,
  300, 304,
  300, 308,
  300, 309,
  300, 310,
  300, 311,
  300, 312,
  300, 313,
  300, 314,
  300, 315,
  300, 316,
  300, 319,
  300, 321,
  300, 322,
  300, 323,
  300, 325,
  300, 327,
  300, 328,
  300, 329,
  300, 331,
  300, 332,
  300, 333,
  300, 334,
  300, 336,
  300, 338,
  300, 339,
  300, 340,
  300, 341,
  300, 342,
  300, 344,
  300, 346,
  300, 347,
  300, 348,
  300, 349,
  300, 350,
  300, 351,
  300, 352,
  300, 353,
  300, 354,
  300, 357,
  300, 359,
  300, 360,
  300, 361,
  300, 365,
  300, 366,
  300, 367,
  300, 373,
  300, 375,
  300, 381,
  300, 382,
  300, 385,
  300, 387,
  300, 388,
  300, 391,
  300, 392,
  300, 393,
  300, 396,
  300, 398,
  300, 403,
  300, 404,
  300, 405,
  300, 406,
  300, 407,
  300, 411,
  300, 412,
  300, 413,
  300, 414,
  300, 415,
  300, 418,
  300, 421,
  300, 422,
  300, 423,
  300, 425,
  300, 426,
  300, 428,
  300, 429,
  300, 430,
  300, 436,
  300, 438,
  300, 439,
  300, 443,
  300, 444,
  300, 445,
  300, 449,
  300, 450,
  300, 451,
  300, 453,
  300, 454,
  300, 455,
  300, 456,
  300, 457,
  300, 458,
  300, 461,
  300, 462,
  300, 463,
  300, 466,
  300, 467,
  300, 469,
  300, 473,
  300, 476,
  300, 478,
  300, 480,
  300, 481,
  300, 486,
  300, 487,
  300, 489,
  300, 491,
  300, 492,
  300, 494,
  300, 495,
  300, 496,
  300, 497,
  300, 499,
  300, 500,
  301, 303,
  301, 308,
  301, 310,
  301, 311,
  301, 313,
  301, 314,
  301, 315,
  301, 321,
  301, 323,
  301, 324,
  301, 325,
  301, 326,
  301, 327,
  301, 331,
  301, 332,
  301, 333,
  301, 334,
  301, 335,
  301, 336,
  301, 337,
  301, 338,
  301, 339,
  301, 340,
  301, 341,
  301, 343,
  301, 346,
  301, 347,
  301, 351,
  301, 352,
  301, 357,
  301, 359,
  301, 365,
  301, 369,
  301, 374,
  301, 375,
  301, 377,
  301, 378,
  301, 381,
  301, 383,
  301, 387,
  301, 388,
  301, 390,
  301, 392,
  301, 393,
  301, 394,
  301, 397,
  301, 398,
  301, 399,
  301, 404,
  301, 405,
  301, 406,
  301, 409,
  301, 410,
  301, 412,
  301, 413,
  301, 414,
  301, 415,
  301, 419,
  301, 428,
  301, 430,
  301, 431,
  301, 433,
  301, 434,
  301, 435,
  301, 436,
  301, 440,
  301, 441,
  301, 442,
  301, 443,
  301, 444,
  301, 445,
  301, 446,
  301, 447,
  301, 449,
  301, 450,
  301, 452,
  301, 454,
  301, 455,
  301, 456,
  301, 457,
  301, 460,
  301, 461,
  301, 463,
  301, 466,
  301, 467,
  301, 468,
  301, 472,
  301, 473,
  301, 474,
  301, 475,
  301, 476,
  301, 477,
  301, 478,
  301, 479,
  301, 480,
  301, 482,
  301, 487,
  301, 490,
  301, 494,
  301, 495,
  301, 496,
  301, 498,
  301, 500,
  302, 303,
  302, 305,
  302, 307,
  302, 308,
  302, 315,
  302, 316,
  302, 320,
  302, 322,
  302, 324,
  302, 325,
  302, 328,
  302, 330,
  302, 332,
  302, 334,
  302, 336,
  302, 338,
  302, 339,
  302, 341,
  302, 342,
  302, 344,
  302, 345,
  302, 347,
  302, 352,
  302, 353,
  302, 358,
  302, 362,
  302, 363,
  302, 371,
  302, 372,
  302, 375,
  302, 376,
  302, 383,
  302, 384,
  302, 387,
  302, 389,
  302, 392,
  302, 393,
  302, 394,
  302, 396,
  302, 397,
  302, 398,
  302, 404,
  302, 405,
  302, 406,
  302, 410,
  302, 411,
  302, 412,
  302, 414,
  302, 415,
  302, 416,
  302, 417,
  302, 419,
  302, 422,
  302, 423,
  302, 424,
  302, 427,
  302, 428,
  302, 429,
  302, 432,
  302, 438,
  302, 439,
  302, 441,
  302, 446,
  302, 448,
  302, 449,
  302, 454,
  302, 455,
  302, 456,
  302, 457,
  302, 458,
  302, 460,
  302, 461,
  302, 462,
  302, 463,
  302, 470,
  302, 474,
  302, 475,
  302, 476,
  302, 477,
  302, 478,
  302, 480,
  302, 481,
  302, 483,
  302, 484,
  302, 487,
  302, 488,
  302, 490,
  302, 491,
  302, 492,
  302, 494,
  302, 496,
  302, 498,
  302, 499,
  303, 304,
  303, 313,
  303, 315,
  303, 318,
  303, 319,
  303, 320,
  303, 322,
  303, 323,
  303, 325,
  303, 327,
  303, 330,
  303, 331,
  303, 332,
  303, 334,
  303, 335,
  303, 337,
  303, 338,
  303, 342,
  303, 345,
  303, 346,
  303, 347,
  303, 348,
  303, 350,
  303, 352,
  303, 354,
  303, 356,
  303, 357,
  303, 360,
  303, 361,
  303, 363,
  303, 370,
  303, 372,
  303, 375,
  303, 382,
  303, 384,
  303, 386,
  303, 388,
  303, 389,
  303, 392,
  303, 393,
  303, 396,
  303, 399,
  303, 402,
  303, 403,
  303, 411,
  303, 416,
  303, 418,
  303, 420,
  303, 421,
  303, 422,
  303, 425,
  303, 426,
  303, 427,
  303, 428,
  303, 431,
  303, 433,
  303, 437,
  303, 439,
  303, 441,
  303, 445,
  303, 446,
  303, 447,
  303, 449,
  303, 450,
  303, 452,
  303, 455,
  303, 458,
  303, 462,
  303, 465,
  303, 467,
  303, 470,
  303, 473,
  303, 475,
  303, 478,
  303, 480,
  303, 482,
  303, 487,
  303, 489,
  303, 491,
  303, 493,
  303, 495,
  303, 500,
  304, 307,
  304, 308,
  304, 310,
  304, 311,
  304, 315,
  304, 322,
  304, 323,
  304, 325,
  304, 326,
  304, 327,
  304, 328,
  304, 330,
  304, 332,
  304, 337,
  304, 339,
  304, 342,
  304, 343,
  304, 346,
  304, 347,
  304, 349,
  304, 353,
  304, 354,
  304, 355,
  304, 356,
  304, 360,
  304, 361,
  304, 364,
  304, 366,
  304, 369,
  304, 370,
  304, 371,
  304, 372,
  304, 373,
  304, 376,
  304, 379,
  304, 380,
  304, 381,
  304, 382,
  304, 383,
  304, 385,
  304, 386,
  304, 387,
  304, 390,
  304, 391,
  304, 393,
  304, 394,
  304, 396,
  304, 397,
  304, 398,
  304, 399,
  304, 403,
  304, 405,
  304, 408,
  304, 411,
  304, 412,
  304, 413,
  304, 415,
  304, 416,
  304, 419,
  304, 420,
  304, 421,
  304, 422,
  304, 425,
  304, 426,
  304, 427,
  304, 428,
  304, 429,
  304, 431,
  304, 433,
  304, 434,
  304, 435,
  304, 436,
  304, 439,
  304, 440,
  304, 448,
  304, 449,
  304, 452,
  304, 455,
  304, 456,
  304, 459,
  304, 460,
  304, 461,
  304, 462,
  304, 463,
  304, 465,
  304, 467,
  304, 468,
  304, 469,
  304, 473,
  304, 475,
  304, 478,
  304, 480,
  304, 482,
  304, 483,
  304, 489,
  304, 491,
  304, 492,
  304, 493,
  304, 494,
  304, 497,
  304, 498,
  305, 306,
  305, 310,
  305, 312,
  305, 313,
  305, 316,
  305, 320,
  305, 321,
  305, 323,
  305, 324,
  305, 325,
  305, 329,
  305, 330,
  305, 333,
  305, 334,
  305, 335,
  305, 337,
  305, 338,
  305, 339,
  305, 341,
  305, 342,
  305, 345,
  305, 347,
  305, 348,
  305, 349,
  305, 350,
  305, 352,
  305, 354,
  305, 355,
  305, 358,
  305, 361,
  305, 365,
  305, 366,
  305, 367,
  305, 369,
  305, 370,
  305, 371,
  305, 373,
  305, 374,
  305, 376,
  305, 378,
  305, 379,
  305, 381,
  305, 382,
  305, 383,
  305, 384,
  305, 386,
  305, 387,
  305, 389,
  305, 390,
  305, 391,
  305, 394,
  305, 396,
  305, 403,
  305, 404,
  305, 405,
  305, 406,
  305, 407,
  305, 409,
  305, 410,
  305, 411,
  305, 414,
  305, 421,
  305, 424,
  305, 425,
  305, 430,
  305, 432,
  305, 436,
  305, 437,
  305, 439,
  305, 440,
  305, 441,
  305, 442,
  305, 443,
  305, 444,
  305, 445,
  305, 446,
  305, 447,
  305, 448,
  305, 449,
  305, 451,
  305, 453,
  305, 454,
  305, 456,
  305, 457,
  305, 458,
  305, 461,
  305, 463,
  305, 464,
  305, 466,
  305, 467,
  305, 469,
  305, 470,
  305, 472,
  305, 473,
  305, 474,
  305, 475,
  305, 476,
  305, 477,
  305, 479,
  305, 482,
  305, 484,
  305, 490,
  305, 492,
  305, 496,
  305, 498,
  305, 500,
  306, 307,
  306, 309,
  306, 310,
  306, 313,
  306, 314,
  306, 315,
  306, 316,
  306, 317,
  306, 323,
  306, 330,
  306, 335,
  306, 338,
  306, 339,
  306, 340,
  306, 341,
  306, 343,
  306, 344,
  306, 345,
  306, 346,
  306, 347,
  306, 349,
  306, 351,
  306, 352,
  306, 353,
  306, 356,
  306, 357,
  306, 358,
  306, 359,
  306, 360,
  306, 363,
  306, 364,
  306, 365,
  306, 373,
  306, 374,
  306, 377,
  306, 378,
  306, 379,
  306, 382,
  306, 385,
  306, 386,
  306, 387,
  306, 389,
  306, 395,
  306, 399,
  306, 403,
  306, 405,
  306, 406,
  306, 407,
  306, 409,
  306, 410,
  306, 414,
  306, 418,
  306, 420,
  306, 421,
  306, 422,
  306, 425,
  306, 427,
  306, 433,
  306, 434,
  306, 435,
  306, 438,
  306, 440,
  306, 445,
  306, 448,
  306, 449,
  306, 452,
  306, 456,
  306, 457,
  306, 458,
  306, 459,
  306, 460,
  306, 461,
  306, 462,
  306, 463,
  306, 465,
  306, 467,
  306, 468,
  306, 470,
  306, 471,
  306, 474,
  306, 476,
  306, 477,
  306, 478,
  306, 484,
  306, 485,
  306, 486,
  306, 491,
  306, 493,
  306, 495,
  306, 498,
  306, 499,
  306, 500,
  307, 308,
  307, 309,
  307, 311,
  307, 312,
  307, 314,
  307, 317,
  307, 321,
  307, 322,
  307, 323,
  307, 324,
  307, 328,
  307, 332,
  307, 334,
  307, 336,
  307, 337,
  307, 338,
  307, 340,
  307, 341,
  307, 343,
  307, 344,
  307, 345,
  307, 346,
  307, 349,
  307, 350,
  307, 351,
  307, 353,
  307, 356,
  307, 359,
  307, 361,
  307, 364,
  307, 365,
  307, 366,
  307, 367,
  307, 373,
  307, 375,
  307, 378,
  307, 383,
  307, 384,
  307, 385,
  307, 387,
  307, 388,
  307, 389,
  307, 390,
  307, 392,
  307, 393,
  307, 394,
  307, 395,
  307, 397,
  307, 404,
  307, 405,
  307, 406,
  307, 407,
  307, 410,
  307, 412,
  307, 414,
  307, 418,
  307, 419,
  307, 423,
  307, 424,
  307, 426,
  307, 428,
  307, 429,
  307, 432,
  307, 435,
  307, 436,
  307, 437,
  307, 438,
  307, 439,
  307, 442,
  307, 446,
  307, 449,
  307, 450,
  307, 451,
  307, 454,
  307, 455,
  307, 457,
  307, 458,
  307, 459,
  307, 462,
  307, 463,
  307, 464,
  307, 465,
  307, 466,
  307, 469,
  307, 470,
  307, 474,
  307, 475,
  307, 476,
  307, 477,
  307, 478,
  307, 479,
  307, 481,
  307, 483,
  307, 487,
  307, 490,
  307, 491,
  307, 492,
  307, 494,
  307, 497,
  307, 498,
  307, 500,
  308, 309,
  308, 312,
  308, 316,
  308, 318,
  308, 320,
  308, 324,
  308, 325,
  308, 326,
  308, 327,
  308, 328,
  308, 329,
  308, 330,
  308, 331,
  308, 336,
  308, 346,
  308, 347,
  308, 349,
  308, 351,
  308, 352,
  308, 353,
  308, 354,
  308, 355,
  308, 358,
  308, 359,
  308, 361,
  308, 365,
  308, 367,
  308, 372,
  308, 373,
  308, 374,
  308, 377,
  308, 379,
  308, 380,
  308, 382,
  308, 383,
  308, 384,
  308, 385,
  308, 386,
  308, 388,
  308, 389,
  308, 393,
  308, 395,
  308, 399,
  308, 401,
  308, 402,
  308, 405,
  308, 407,
  308, 408,
  308, 411,
  308, 413,
  308, 414,
  308, 415,
  308, 419,
  308, 420,
  308, 424,
  308, 430,
  308, 431,
  308, 434,
  308, 442,
  308, 443,
  308, 444,
  308, 445,
  308, 446,
  308, 449,
  308, 451,
  308, 452,
  308, 453,
  308, 455,
  308, 459,
  308, 462,
  308, 463,
  308, 464,
  308, 468,
  308, 469,
  308, 470,
  308, 471,
  308, 472,
  308, 473,
  308, 477,
  308, 478,
  308, 479,
  308, 484,
  308, 485,
  308, 487,
  308, 488,
  308, 491,
  308, 492,
  308, 494,
  308, 495,
  308, 497,
  309, 314,
  309, 315,
  309, 317,
  309, 318,
  309, 319,
  309, 320,
  309, 321,
  309, 322,
  309, 323,
  309, 324,
  309, 325,
  309, 328,
  309, 329,
  309, 330,
  309, 331,
  309, 332,
  309, 333,
  309, 334,
  309, 337,
  309, 342,
  309, 344,
  309, 347,
  309, 351,
  309, 353,
  309, 354,
  309, 355,
  309, 356,
  309, 357,
  309, 358,
  309, 360,
  309, 361,
  309, 363,
  309, 364,
  309, 366,
  309, 367,
  309, 370,
  309, 372,
  309, 373,
  309, 377,
  309, 378,
  309, 381,
  309, 382,
  309, 385,
  309, 386,
  309, 387,
  309, 388,
  309, 390,
  309, 391,
  309, 392,
  309, 394,
  309, 395,
  309, 398,
  309, 400,
  309, 401,
  309, 403,
  309, 404,
  309, 405,
  309, 406,
  309, 411,
  309, 414,
  309, 416,
  309, 417,
  309, 418,
  309, 420,
  309, 421,
  309, 422,
  309, 428,
  309, 429,
  309, 430,
  309, 433,
  309, 435,
  309, 436,
  309, 439,
  309, 440,
  309, 442,
  309, 443,
  309, 444,
  309, 446,
  309, 448,
  309, 449,
  309, 451,
  309, 456,
  309, 459,
  309, 461,
  309, 462,
  309, 464,
  309, 465,
  309, 466,
  309, 468,
  309, 470,
  309, 472,
  309, 474,
  309, 476,
  309, 478,
  309, 480,
  309, 482,
  309, 487,
  309, 488,
  309, 489,
  309, 490,
  309, 491,
  309, 492,
  309, 493,
  309, 494,
  309, 496,
  309, 497,
  309, 498,
  309, 500,
  310, 311,
  310, 312,
  310, 313,
  310, 315,
  310, 318,
  310, 319,
  310, 321,
  310, 323,
  310, 324,
  310, 327,
  310, 328,
  310, 331,
  310, 332,
  310, 333,
  310, 341,
  310, 343,
  310, 344,
  310, 345,
  310, 346,
  310, 349,
  310, 352,
  310, 354,
  310, 355,
  310, 356,
  310, 357,
  310, 360,
  310, 363,
  310, 364,
  310, 365,
  310, 367,
  310, 369,
  310, 371,
  310, 372,
  310, 373,
  310, 374,
  310, 376,
  310, 377,
  310, 378,
  310, 379,
  310, 381,
  310, 383,
  310, 384,
  310, 386,
  310, 387,
  310, 388,
  310, 392,
  310, 393,
  310, 397,
  310, 398,
  310, 399,
  310, 408,
  310, 411,
  310, 414,
  310, 415,
  310, 417,
  310, 418,
  310, 419,
  310, 422,
  310, 424,
  310, 433,
  310, 436,
  310, 437,
  310, 440,
  310, 441,
  310, 442,
  310, 443,
  310, 444,
  310, 445,
  310, 446,
  310, 447,
  310, 448,
  310, 449,
  310, 452,
  310, 453,
  310, 454,
  310, 456,
  310, 457,
  310, 459,
  310, 460,
  310, 463,
  310, 466,
  310, 467,
  310, 474,
  310, 475,
  310, 478,
  310, 479,
  310, 481,
  310, 482,
  310, 483,
  310, 485,
  310, 488,
  310, 489,
  310, 490,
  310, 491,
  310, 492,
  310, 493,
  310, 497,
  310, 499,
  311, 312,
  311, 317,
  311, 318,
  311, 321,
  311, 322,
  311, 327,
  311, 329,
  311, 338,
  311, 340,
  311, 341,
  311, 342,
  311, 345,
  311, 346,
  311, 347,
  311, 349,
  311, 350,
  311, 352,
  311, 353,
  311, 354,
  311, 356,
  311, 357,
  311, 362,
  311, 363,
  311, 364,
  311, 365,
  311, 367,
  311, 368,
  311, 371,
  311, 374,
  311, 376,
  311, 379,
  311, 380,
  311, 381,
  311, 384,
  311, 385,
  311, 386,
  311, 389,
  311, 390,
  311, 391,
  311, 394,
  311, 395,
  311, 396,
  311, 398,
  311, 399,
  311, 402,
  311, 405,
  311, 407,
  311, 409,
  311, 412,
  311, 413,
  311, 414,
  311, 416,
  311, 417,
  311, 418,
  311, 420,
  311, 421,
  311, 425,
  311, 427,
  311, 429,
  311, 430,
  311, 434,
  311, 435,
  311, 437,
  311, 441,
  311, 442,
  311, 445,
  311, 447,
  311, 449,
  311, 452,
  311, 458,
  311, 459,
  311, 462,
  311, 464,
  311, 465,
  311, 466,
  311, 468,
  311, 469,
  311, 470,
  311, 472,
  311, 473,
  311, 475,
  311, 476,
  311, 477,
  311, 478,
  311, 480,
  311, 483,
  311, 484,
  311, 485,
  311, 487,
  311, 488,
  311, 489,
  311, 490,
  311, 492,
  311, 497,
  311, 499,
  312, 316,
  312, 318,
  312, 320,
  312, 321,
  312, 322,
  312, 325,
  312, 326,
  312, 327,
  312, 328,
  312, 331,
  312, 332,
  312, 335,
  312, 336,
  312, 340,
  312, 342,
  312, 343,
  312, 345,
  312, 346,
  312, 348,
  312, 349,
  312, 352,
  312, 356,
  312, 357,
  312, 359,
  312, 361,
  312, 362,
  312, 370,
  312, 372,
  312, 374,
  312, 376,
  312, 377,
  312, 378,
  312, 379,
  312, 380,
  312, 381,
  312, 382,
  312, 383,
  312, 384,
  312, 389,
  312, 391,
  312, 392,
  312, 395,
  312, 396,
  312, 397,
  312, 398,
  312, 399,
  312, 400,
  312, 401,
  312, 402,
  312, 403,
  312, 404,
  312, 405,
  312, 409,
  312, 410,
  312, 411,
  312, 412,
  312, 415,
  312, 416,
  312, 419,
  312, 420,
  312, 423,
  312, 426,
  312, 427,
  312, 428,
  312, 430,
  312, 431,
  312, 432,
  312, 433,
  312, 436,
  312, 438,
  312, 440,
  312, 441,
  312, 442,
  312, 445,
  312, 446,
  312, 450,
  312, 451,
  312, 454,
  312, 461,
  312, 462,
  312, 463,
  312, 465,
  312, 467,
  312, 468,
  312, 469,
  312, 470,
  312, 472,
  312, 473,
  312, 474,
  312, 475,
  312, 476,
  312, 479,
  312, 483,
  312, 484,
  312, 486,
  312, 487,
  312, 488,
  312, 489,
  312, 490,
  312, 493,
  312, 497,
  312, 499,
  312, 500,
  313, 315,
  313, 320,
  313, 321,
  313, 324,
  313, 325,
  313, 330,
  313, 331,
  313, 334,
  313, 336,
  313, 339,
  313, 345,
  313, 347,
  313, 351,
  313, 353,
  313, 354,
  313, 356,
  313, 357,
  313, 360,
  313, 361,
  313, 364,
  313, 365,
  313, 368,
  313, 370,
  313, 371,
  313, 379,
  313, 380,
  313, 381,
  313, 382,
  313, 383,
  313, 384,
  313, 385,
  313, 386,
  313, 387,
  313, 388,
  313, 390,
  313, 391,
  313, 394,
  313, 396,
  313, 398,
  313, 404,
  313, 406,
  313, 407,
  313, 409,
  313, 410,
  313, 411,
  313, 416,
  313, 417,
  313, 418,
  313, 420,
  313, 421,
  313, 424,
  313, 426,
  313, 431,
  313, 444,
  313, 445,
  313, 448,
  313, 449,
  313, 451,
  313, 455,
  313, 456,
  313, 457,
  313, 459,
  313, 463,
  313, 466,
  313, 470,
  313, 471,
  313, 472,
  313, 477,
  313, 480,
  313, 485,
  313, 486,
  313, 487,
  313, 489,
  313, 492,
  313, 494,
  313, 499,
  313, 500,
  314, 315,
  314, 321,
  314, 322,
  314, 323,
  314, 324,
  314, 327,
  314, 328,
  314, 329,
  314, 331,
  314, 334,
  314, 335,
  314, 336,
  314, 337,
  314, 338,
  314, 343,
  314, 344,
  314, 348,
  314, 352,
  314, 353,
  314, 354,
  314, 356,
  314, 357,
  314, 360,
  314, 361,
  314, 366,
  314, 370,
  314, 372,
  314, 373,
  314, 374,
  314, 376,
  314, 377,
  314, 379,
  314, 380,
  314, 381,
  314, 383,
  314, 384,
  314, 385,
  314, 386,
  314, 388,
  314, 391,
  314, 392,
  314, 394,
  314, 397,
  314, 398,
  314, 399,
  314, 402,
  314, 403,
  314, 404,
  314, 405,
  314, 406,
  314, 408,
  314, 409,
  314, 410,
  314, 411,
  314, 412,
  314, 413,
  314, 414,
  314, 415,
  314, 416,
  314, 419,
  314, 421,
  314, 422,
  314, 423,
  314, 424,
  314, 427,
  314, 428,
  314, 435,
  314, 438,
  314, 439,
  314, 442,
  314, 443,
  314, 444,
  314, 446,
  314, 447,
  314, 454,
  314, 455,
  314, 456,
  314, 458,
  314, 462,
  314, 464,
  314, 467,
  314, 468,
  314, 469,
  314, 470,
  314, 474,
  314, 475,
  314, 476,
  314, 477,
  314, 481,
  314, 483,
  314, 485,
  314, 488,
  314, 490,
  314, 493,
  314, 494,
  314, 495,
  314, 496,
  314, 498,
  315, 318,
  315, 320,
  315, 321,
  315, 322,
  315, 323,
  315, 324,
  315, 325,
  315, 326,
  315, 332,
  315, 333,
  315, 334,
  315, 335,
  315, 336,
  315, 338,
  315, 339,
  315, 343,
  315, 344,
  315, 345,
  315, 346,
  315, 350,
  315, 351,
  315, 352,
  315, 357,
  315, 359,
  315, 361,
  315, 363,
  315, 365,
  315, 369,
  315, 371,
  315, 372,
  315, 374,
  315, 377,
  315, 381,
  315, 382,
  315, 383,
  315, 386,
  315, 387,
  315, 388,
  315, 389,
  315, 392,
  315, 395,
  315, 396,
  315, 401,
  315, 403,
  315, 407,
  315, 409,
  315, 412,
  315, 414,
  315, 416,
  315, 418,
  315, 420,
  315, 422,
  315, 424,
  315, 425,
  315, 428,
  315, 430,
  315, 433,
  315, 434,
  315, 436,
  315, 439,
  315, 442,
  315, 444,
  315, 447,
  315, 448,
  315, 451,
  315, 452,
  315, 453,
  315, 455,
  315, 456,
  315, 457,
  315, 461,
  315, 467,
  315, 470,
  315, 473,
  315, 474,
  315, 475,
  315, 476,
  315, 477,
  315, 478,
  315, 479,
  315, 482,
  315, 484,
  315, 485,
  315, 488,
  315, 490,
  315, 493,
  315, 494,
  315, 498,
  315, 500,
  316, 317,
  316, 320,
  316, 321,
  316, 323,
  316, 324,
  316, 326,
  316, 330,
  316, 333,
  316, 335,
  316, 336,
  316, 338,
  316, 340,
  316, 343,
  316, 344,
  316, 345,
  316, 347,
  316, 349,
  316, 352,
  316, 353,
  316, 356,
  316, 357,
  316, 358,
  316, 360,
  316, 361,
  316, 364,
  316, 367,
  316, 371,
  316, 372,
  316, 374,
  316, 375,
  316, 376,
  316, 377,
  316, 378,
  316, 386,
  316, 387,
  316, 388,
  316, 389,
  316, 391,
  316, 393,
  316, 394,
  316, 397,
  316, 399,
  316, 401,
  316, 402,
  316, 403,
  316, 404,
  316, 406,
  316, 407,
  316, 408,
  316, 409,
  316, 410,
  316, 411,
  316, 413,
  316, 416,
  316, 418,
  316, 419,
  316, 420,
  316, 422,
  316, 423,
  316, 425,
  316, 427,
  316, 428,
  316, 432,
  316, 433,
  316, 436,
  316, 437,
  316, 438,
  316, 442,
  316, 443,
  316, 446,
  316, 448,
  316, 456,
  316, 457,
  316, 460,
  316, 461,
  316, 462,
  316, 463,
  316, 464,
  316, 465,
  316, 466,
  316, 469,
  316, 470,
  316, 471,
  316, 472,
  316, 473,
  316, 480,
  316, 481,
  316, 484,
  316, 485,
  316, 487,
  316, 488,
  316, 495,
  316, 496,
  316, 497,
  316, 498,
  316, 499,
  316, 500,
  317, 318,
  317, 322,
  317, 327,
  317, 329,
  317, 332,
  317, 333,
  317, 334,
  317, 338,
  317, 339,
  317, 341,
  317, 342,
  317, 343,
  317, 345,
  317, 346,
  317, 348,
  317, 349,
  317, 351,
  317, 354,
  317, 356,
  317, 357,
  317, 361,
  317, 362,
  317, 364,
  317, 365,
  317, 367,
  317, 369,
  317, 371,
  317, 376,
  317, 377,
  317, 378,
  317, 382,
  317, 384,
  317, 387,
  317, 388,
  317, 389,
  317, 390,
  317, 391,
  317, 392,
  317, 394,
  317, 395,
  317, 396,
  317, 398,
  317, 399,
  317, 400,
  317, 401,
  317, 405,
  317, 407,
  317, 409,
  317, 413,
  317, 414,
  317, 415,
  317, 416,
  317, 418,
  317, 419,
  317, 420,
  317, 427,
  317, 428,
  317, 429,
  317, 430,
  317, 431,
  317, 432,
  317, 433,
  317, 434,
  317, 435,
  317, 437,
  317, 438,
  317, 439,
  317, 441,
  317, 442,
  317, 443,
  317, 444,
  317, 445,
  317, 446,
  317, 447,
  317, 451,
  317, 452,
  317, 453,
  317, 454,
  317, 456,
  317, 457,
  317, 460,
  317, 467,
  317, 468,
  317, 471,
  317, 472,
  317, 473,
  317, 474,
  317, 476,
  317, 477,
  317, 479,
  317, 480,
  317, 485,
  317, 487,
  317, 488,
  317, 491,
  317, 492,
  317, 494,
  317, 495,
  317, 497,
  317, 500,
  318, 319,
  318, 320,
  318, 323,
  318, 325,
  318, 326,
  318, 334,
  318, 335,
  318, 337,
  318, 338,
  318, 339,
  318, 340,
  318, 341,
  318, 347,
  318, 348,
  318, 349,
  318, 353,
  318, 354,
  318, 355,
  318, 356,
  318, 359,
  318, 360,
  318, 361,
  318, 364,
  318, 369,
  318, 371,
  318, 374,
  318, 377,
  318, 380,
  318, 385,
  318, 387,
  318, 388,
  318, 392,
  318, 393,
  318, 394,
  318, 397,
  318, 398,
  318, 400,
  318, 401,
  318, 402,
  318, 404,
  318, 408,
  318, 409,
  318, 410,
  318, 411,
  318, 412,
  318, 413,
  318, 414,
  318, 415,
  318, 417,
  318, 418,
  318, 419,
  318, 420,
  318, 421,
  318, 422,
  318, 424,
  318, 426,
  318, 427,
  318, 428,
  318, 431,
  318, 432,
  318, 434,
  318, 435,
  318, 436,
  318, 438,
  318, 446,
  318, 447,
  318, 449,
  318, 450,
  318, 451,
  318, 453,
  318, 454,
  318, 455,
  318, 456,
  318, 460,
  318, 462,
  318, 463,
  318, 464,
  318, 466,
  318, 467,
  318, 468,
  318, 472,
  318, 475,
  318, 481,
  318, 483,
  318, 484,
  318, 485,
  318, 486,
  318, 490,
  318, 491,
  318, 492,
  318, 493,
  318, 496,
  318, 499,
  319, 324,
  319, 325,
  319, 326,
  319, 327,
  319, 328,
  319, 329,
  319, 330,
  319, 332,
  319, 333,
  319, 335,
  319, 336,
  319, 337,
  319, 339,
  319, 341,
  319, 343,
  319, 344,
  319, 345,
  319, 346,
  319, 347,
  319, 349,
  319, 350,
  319, 351,
  319, 353,
  319, 354,
  319, 355,
  319, 357,
  319, 359,
  319, 364,
  319, 365,
  319, 372,
  319, 373,
  319, 374,
  319, 375,
  319, 377,
  319, 378,
  319, 380,
  319, 382,
  319, 385,
  319, 387,
  319, 389,
  319, 390,
  319, 391,
  319, 392,
  319, 393,
  319, 394,
  319, 395,
  319, 401,
  319, 403,
  319, 404,
  319, 405,
  319, 408,
  319, 410,
  319, 411,
  319, 412,
  319, 413,
  319, 416,
  319, 419,
  319, 421,
  319, 422,
  319, 423,
  319, 424,
  319, 427,
  319, 428,
  319, 430,
  319, 431,
  319, 435,
  319, 437,
  319, 441,
  319, 443,
  319, 445,
  319, 447,
  319, 449,
  319, 450,
  319, 451,
  319, 453,
  319, 454,
  319, 455,
  319, 459,
  319, 460,
  319, 461,
  319, 462,
  319, 463,
  319, 464,
  319, 467,
  319, 472,
  319, 481,
  319, 483,
  319, 484,
  319, 485,
  319, 486,
  319, 498,
  320, 322,
  320, 324,
  320, 325,
  320, 326,
  320, 335,
  320, 338,
  320, 341,
  320, 342,
  320, 343,
  320, 345,
  320, 349,
  320, 350,
  320, 355,
  320, 356,
  320, 357,
  320, 360,
  320, 362,
  320, 365,
  320, 366,
  320, 372,
  320, 374,
  320, 375,
  320, 377,
  320, 379,
  320, 381,
  320, 382,
  320, 383,
  320, 390,
  320, 391,
  320, 394,
  320, 398,
  320, 400,
  320, 403,
  320, 404,
  320, 407,
  320, 408,
  320, 409,
  320, 410,
  320, 411,
  320, 413,
  320, 414,
  320, 415,
  320, 416,
  320, 423,
  320, 425,
  320, 426,
  320, 430,
  320, 431,
  320, 437,
  320, 438,
  320, 439,
  320, 440,
  320, 441,
  320, 445,
  320, 446,
  320, 447,
  320, 448,
  320, 449,
  320, 451,
  320, 453,
  320, 454,
  320, 455,
  320, 457,
  320, 459,
  320, 460,
  320, 463,
  320, 464,
  320, 465,
  320, 467,
  320, 469,
  320, 470,
  320, 471,
  320, 473,
  320, 475,
  320, 476,
  320, 477,
  320, 479,
  320, 481,
  320, 483,
  320, 486,
  320, 487,
  320, 488,
  320, 489,
  320, 490,
  320, 492,
  320, 493,
  320, 494,
  320, 498,
  320, 499,
  321, 322,
  321, 325,
  321, 327,
  321, 328,
  321, 329,
  321, 330,
  321, 333,
  321, 335,
  321, 336,
  321, 338,
  321, 340,
  321, 341,
  321, 342,
  321, 343,
  321, 344,
  321, 345,
  321, 348,
  321, 349,
  321, 352,
  321, 353,
  321, 356,
  321, 358,
  321, 362,
  321, 366,
  321, 368,
  321, 369,
  321, 370,
  321, 372,
  321, 373,
  321, 376,
  321, 381,
  321, 382,
  321, 384,
  321, 386,
  321, 387,
  321, 388,
  321, 390,
  321, 393,
  321, 394,
  321, 395,
  321, 399,
  321, 400,
  321, 402,
  321, 403,
  321, 404,
  321, 407,
  321, 410,
  321, 412,
  321, 416,
  321, 420,
  321, 423,
  321, 424,
  321, 425,
  321, 427,
  321, 428,
  321, 431,
  321, 434,
  321, 436,
  321, 438,
  321, 440,
  321, 445,
  321, 446,
  321, 451,
  321, 452,
  321, 454,
  321, 455,
  321, 456,
  321, 457,
  321, 458,
  321, 461,
  321, 462,
  321, 463,
  321, 464,
  321, 466,
  321, 468,
  321, 470,
  321, 472,
  321, 473,
  321, 476,
  321, 477,
  321, 479,
  321, 480,
  321, 482,
  321, 483,
  321, 490,
  321, 491,
  321, 492,
  321, 493,
  321, 496,
  321, 497,
  321, 498,
  321, 499,
  322, 323,
  322, 324,
  322, 325,
  322, 327,
  322, 328,
  322, 329,
  322, 330,
  322, 333,
  322, 334,
  322, 335,
  322, 336,
  322, 337,
  322, 338,
  322, 339,
  322, 340,
  322, 341,
  322, 346,
  322, 347,
  322, 349,
  322, 350,
  322, 352,
  322, 355,
  322, 357,
  322, 358,
  322, 359,
  322, 360,
  322, 365,
  322, 366,
  322, 367,
  322, 368,
  322, 369,
  322, 375,
  322, 376,
  322, 377,
  322, 378,
  322, 380,
  322, 382,
  322, 384,
  322, 385,
  322, 386,
  322, 387,
  322, 388,
  322, 389,
  322, 394,
  322, 399,
  322, 400,
  322, 404,
  322, 405,
  322, 406,
  322, 408,
  322, 411,
  322, 413,
  322, 415,
  322, 418,
  322, 419,
  322, 420,
  322, 421,
  322, 423,
  322, 424,
  322, 428,
  322, 430,
  322, 432,
  322, 435,
  322, 436,
  322, 444,
  322, 445,
  322, 449,
  322, 451,
  322, 452,
  322, 453,
  322, 457,
  322, 459,
  322, 461,
  322, 462,
  322, 463,
  322, 465,
  322, 466,
  322, 467,
  322, 468,
  322, 469,
  322, 470,
  322, 471,
  322, 472,
  322, 475,
  322, 479,
  322, 480,
  322, 483,
  322, 490,
  322, 494,
  322, 495,
  322, 496,
  322, 497,
  322, 500,
  323, 327,
  323, 328,
  323, 329,
  323, 330,
  323, 331,
  323, 333,
  323, 336,
  323, 339,
  323, 341,
  323, 342,
  323, 345,
  323, 346,
  323, 347,
  323, 349,
  323, 351,
  323, 352,
  323, 354,
  323, 356,
  323, 357,
  323, 359,
  323, 360,
  323, 361,
  323, 362,
  323, 363,
  323, 364,
  323, 365,
  323, 369,
  323, 374,
  323, 375,
  323, 377,
  323, 379,
  323, 381,
  323, 383,
  323, 384,
  323, 387,
  323, 388,
  323, 389,
  323, 393,
  323, 394,
  323, 395,
  323, 399,
  323, 400,
  323, 402,
  323, 404,
  323, 407,
  323, 410,
  323, 411,
  323, 412,
  323, 413,
  323, 418,
  323, 422,
  323, 424,
  323, 425,
  323, 427,
  323, 428,
  323, 431,
  323, 433,
  323, 435,
  323, 436,
  323, 441,
  323, 443,
  323, 447,
  323, 450,
  323, 451,
  323, 452,
  323, 454,
  323, 455,
  323, 456,
  323, 458,
  323, 460,
  323, 463,
  323, 464,
  323, 466,
  323, 468,
  323, 470,
  323, 471,
  323, 475,
  323, 477,
  323, 479,
  323, 480,
  323, 481,
  323, 482,
  323, 486,
  323, 488,
  323, 490,
  323, 492,
  323, 493,
  323, 494,
  323, 496,
  323, 498,
  324, 325,
  324, 326,
  324, 327,
  324, 331,
  324, 333,
  324, 335,
  324, 336,
  324, 338,
  324, 339,
  324, 340,
  324, 341,
  324, 343,
  324, 344,
  324, 347,
  324, 350,
  324, 352,
  324, 358,
  324, 359,
  324, 360,
  324, 361,
  324, 362,
  324, 367,
  324, 368,
  324, 369,
  324, 370,
  324, 373,
  324, 376,
  324, 377,
  324, 378,
  324, 380,
  324, 383,
  324, 385,
  324, 388,
  324, 389,
  324, 392,
  324, 396,
  324, 397,
  324, 403,
  324, 404,
  324, 406,
  324, 407,
  324, 408,
  324, 409,
  324, 411,
  324, 413,
  324, 414,
  324, 415,
  324, 418,
  324, 419,
  324, 421,
  324, 422,
  324, 424,
  324, 425,
  324, 426,
  324, 427,
  324, 429,
  324, 430,
  324, 434,
  324, 435,
  324, 436,
  324, 437,
  324, 439,
  324, 441,
  324, 443,
  324, 444,
  324, 446,
  324, 447,
  324, 450,
  324, 451,
  324, 458,
  324, 459,
  324, 460,
  324, 461,
  324, 463,
  324, 464,
  324, 465,
  324, 467,
  324, 468,
  324, 470,
  324, 471,
  324, 475,
  324, 476,
  324, 477,
  324, 479,
  324, 480,
  324, 482,
  324, 484,
  324, 485,
  324, 486,
  324, 487,
  324, 490,
  324, 491,
  324, 492,
  324, 494,
  324, 495,
  324, 496,
  324, 497,
  324, 498,
  324, 499,
  325, 327,
  325, 328,
  325, 330,
  325, 331,
  325, 335,
  325, 337,
  325, 338,
  325, 339,
  325, 342,
  325, 344,
  325, 345,
  325, 346,
  325, 357,
  325, 363,
  325, 366,
  325, 367,
  325, 368,
  325, 369,
  325, 370,
  325, 372,
  325, 374,
  325, 378,
  325, 382,
  325, 383,
  325, 388,
  325, 391,
  325, 392,
  325, 397,
  325, 400,
  325, 404,
  325, 405,
  325, 406,
  325, 409,
  325, 410,
  325, 411,
  325, 412,
  325, 413,
  325, 414,
  325, 415,
  325, 416,
  325, 418,
  325, 420,
  325, 421,
  325, 422,
  325, 425,
  325, 431,
  325, 434,
  325, 435,
  325, 437,
  325, 439,
  325, 440,
  325, 449,
  325, 450,
  325, 452,
  325, 455,
  325, 458,
  325, 459,
  325, 465,
  325, 470,
  325, 472,
  325, 473,
  325, 476,
  325, 479,
  325, 480,
  325, 481,
  325, 482,
  325, 483,
  325, 484,
  325, 487,
  325, 488,
  325, 490,
  325, 491,
  325, 492,
  325, 494,
  325, 498,
  325, 500,
  326, 328,
  326, 329,
  326, 331,
  326, 332,
  326, 333,
  326, 335,
  326, 336,
  326, 338,
  326, 340,
  326, 342,
  326, 343,
  326, 344,
  326, 345,
  326, 346,
  326, 347,
  326, 348,
  326, 351,
  326, 353,
  326, 357,
  326, 359,
  326, 360,
  326, 361,
  326, 362,
  326, 363,
  326, 364,
  326, 365,
  326, 367,
  326, 368,
  326, 369,
  326, 373,
  326, 374,
  326, 376,
  326, 378,
  326, 381,
  326, 385,
  326, 387,
  326, 389,
  326, 390,
  326, 393,
  326, 394,
  326, 397,
  326, 398,
  326, 399,
  326, 400,
  326, 402,
  326, 403,
  326, 406,
  326, 408,
  326, 409,
  326, 412,
  326, 414,
  326, 416,
  326, 417,
  326, 422,
  326, 423,
  326, 425,
  326, 427,
  326, 428,
  326, 429,
  326, 430,
  326, 431,
  326, 433,
  326, 435,
  326, 436,
  326, 437,
  326, 439,
  326, 440,
  326, 442,
  326, 450,
  326, 452,
  326, 453,
  326, 456,
  326, 458,
  326, 459,
  326, 461,
  326, 463,
  326, 465,
  326, 466,
  326, 468,
  326, 469,
  326, 470,
  326, 472,
  326, 473,
  326, 474,
  326, 476,
  326, 478,
  326, 479,
  326, 480,
  326, 481,
  326, 482,
  326, 483,
  326, 484,
  326, 485,
  326, 487,
  326, 488,
  326, 489,
  326, 491,
  326, 493,
  326, 495,
  326, 496,
  326, 497,
  326, 499,
  327, 331,
  327, 333,
  327, 336,
  327, 341,
  327, 342,
  327, 345,
  327, 346,
  327, 352,
  327, 353,
  327, 356,
  327, 357,
  327, 358,
  327, 360,
  327, 361,
  327, 362,
  327, 364,
  327, 366,
  327, 368,
  327, 371,
  327, 374,
  327, 376,
  327, 378,
  327, 379,
  327, 382,
  327, 384,
  327, 387,
  327, 392,
  327, 394,
  327, 395,
  327, 399,
  327, 400,
  327, 401,
  327, 402,
  327, 403,
  327, 404,
  327, 406,
  327, 409,
  327, 410,
  327, 411,
  327, 415,
  327, 417,
  327, 418,
  327, 419,
  327, 421,
  327, 423,
  327, 425,
  327, 429,
  327, 430,
  327, 431,
  327, 435,
  327, 436,
  327, 442,
  327, 443,
  327, 444,
  327, 445,
  327, 450,
  327, 452,
  327, 455,
  327, 458,
  327, 459,
  327, 461,
  327, 462,
  327, 463,
  327, 467,
  327, 468,
  327, 469,
  327, 471,
  327, 472,
  327, 475,
  327, 477,
  327, 479,
  327, 480,
  327, 483,
  327, 486,
  327, 489,
  327, 492,
  327, 495,
  327, 496,
  327, 498,
  327, 499,
  328, 332,
  328, 334,
  328, 336,
  328, 337,
  328, 341,
  328, 344,
  328, 346,
  328, 347,
  328, 349,
  328, 350,
  328, 356,
  328, 359,
  328, 360,
  328, 361,
  328, 362,
  328, 363,
  328, 366,
  328, 370,
  328, 371,
  328, 372,
  328, 375,
  328, 376,
  328, 377,
  328, 378,
  328, 380,
  328, 384,
  328, 385,
  328, 386,
  328, 387,
  328, 388,
  328, 390,
  328, 391,
  328, 392,
  328, 397,
  328, 398,
  328, 399,
  328, 402,
  328, 403,
  328, 405,
  328, 406,
  328, 407,
  328, 408,
  328, 410,
  328, 412,
  328, 413,
  328, 415,
  328, 417,
  328, 418,
  328, 420,
  328, 424,
  328, 428,
  328, 434,
  328, 436,
  328, 444,
  328, 446,
  328, 447,
  328, 450,
  328, 451,
  328, 452,
  328, 453,
  328, 454,
  328, 455,
  328, 459,
  328, 461,
  328, 465,
  328, 466,
  328, 467,
  328, 468,
  328, 471,
  328, 472,
  328, 473,
  328, 476,
  328, 480,
  328, 481,
  328, 483,
  328, 484,
  328, 487,
  328, 488,
  328, 491,
  328, 494,
  328, 495,
  328, 497,
  328, 498,
  329, 331,
  329, 333,
  329, 334,
  329, 338,
  329, 339,
  329, 340,
  329, 343,
  329, 345,
  329, 348,
  329, 349,
  329, 350,
  329, 351,
  329, 352,
  329, 354,
  329, 355,
  329, 356,
  329, 357,
  329, 358,
  329, 360,
  329, 363,
  329, 364,
  329, 369,
  329, 370,
  329, 371,
  329, 372,
  329, 374,
  329, 376,
  329, 381,
  329, 382,
  329, 383,
  329, 385,
  329, 387,
  329, 389,
  329, 393,
  329, 394,
  329, 395,
  329, 396,
  329, 402,
  329, 404,
  329, 405,
  329, 406,
  329, 407,
  329, 408,
  329, 409,
  329, 411,
  329, 412,
  329, 413,
  329, 417,
  329, 419,
  329, 420,
  329, 422,
  329, 425,
  329, 426,
  329, 428,
  329, 430,
  329, 432,
  329, 434,
  329, 437,
  329, 438,
  329, 443,
  329, 444,
  329, 445,
  329, 447,
  329, 448,
  329, 449,
  329, 455,
  329, 456,
  329, 457,
  329, 459,
  329, 460,
  329, 465,
  329, 469,
  329, 470,
  329, 471,
  329, 472,
  329, 473,
  329, 475,
  329, 476,
  329, 478,
  329, 482,
  329, 485,
  329, 488,
  329, 489,
  329, 490,
  329, 491,
  329, 494,
  329, 497,
  329, 498,
  329, 500,
  330, 331,
  330, 332,
  330, 334,
  330, 336,
  330, 343,
  330, 344,
  330, 348,
  330, 349,
  330, 351,
  330, 352,
  330, 353,
  330, 354,
  330, 355,
  330, 357,
  330, 358,
  330, 359,
  330, 360,
  330, 361,
  330, 365,
  330, 369,
  330, 370,
  330, 371,
  330, 372,
  330, 373,
  330, 375,
  330, 377,
  330, 378,
  330, 379,
  330, 383,
  330, 384,
  330, 385,
  330, 387,
  330, 389,
  330, 392,
  330, 393,
  330, 395,
  330, 396,
  330, 399,
  330, 401,
  330, 403,
  330, 404,
  330, 405,
  330, 406,
  330, 407,
  330, 409,
  330, 410,
  330, 411,
  330, 413,
  330, 414,
  330, 417,
  330, 418,
  330, 420,
  330, 423,
  330, 424,
  330, 426,
  330, 427,
  330, 428,
  330, 430,
  330, 433,
  330, 435,
  330, 436,
  330, 437,
  330, 438,
  330, 439,
  330, 440,
  330, 441,
  330, 442,
  330, 443,
  330, 445,
  330, 446,
  330, 450,
  330, 451,
  330, 453,
  330, 455,
  330, 458,
  330, 460,
  330, 461,
  330, 462,
  330, 463,
  330, 464,
  330, 466,
  330, 467,
  330, 469,
  330, 470,
  330, 474,
  330, 475,
  330, 476,
  330, 477,
  330, 478,
  330, 480,
  330, 487,
  330, 488,
  330, 489,
  330, 490,
  330, 491,
  330, 494,
  330, 497,
  330, 499,
  330, 500,
  331, 332,
  331, 333,
  331, 334,
  331, 335,
  331, 336,
  331, 337,
  331, 338,
  331, 339,
  331, 341,
  331, 342,
  331, 344,
  331, 346,
  331, 347,
  331, 348,
  331, 350,
  331, 351,
  331, 352,
  331, 354,
  331, 355,
  331, 356,
  331, 357,
  331, 358,
  331, 359,
  331, 360,
  331, 364,
  331, 367,
  331, 369,
  331, 370,
  331, 371,
  331, 373,
  331, 376,
  331, 377,
  331, 382,
  331, 383,
  331, 384,
  331, 385,
  331, 386,
  331, 391,
  331, 393,
  331, 398,
  331, 400,
  331, 401,
  331, 402,
  331, 403,
  331, 404,
  331, 406,
  331, 408,
  331, 415,
  331, 416,
  331, 418,
  331, 419,
  331, 422,
  331, 423,
  331, 424,
  331, 426,
  331, 427,
  331, 428,
  331, 431,
  331, 437,
  331, 438,
  331, 440,
  331, 441,
  331, 442,
  331, 443,
  331, 444,
  331, 448,
  331, 450,
  331, 451,
  331, 452,
  331, 454,
  331, 458,
  331, 459,
  331, 460,
  331, 463,
  331, 465,
  331, 467,
  331, 468,
  331, 469,
  331, 472,
  331, 474,
  331, 476,
  331, 477,
  331, 478,
  331, 482,
  331, 484,
  331, 486,
  331, 488,
  331, 489,
  331, 490,
  331, 491,
  331, 493,
  331, 494,
  331, 495,
  331, 497,
  331, 498,
  331, 500,
  332, 334,
  332, 335,
  332, 336,
  332, 338,
  332, 339,
  332, 342,
  332, 344,
  332, 346,
  332, 348,
  332, 349,
  332, 351,
  332, 352,
  332, 353,
  332, 354,
  332, 355,
  332, 358,
  332, 359,
  332, 360,
  332, 361,
  332, 362,
  332, 364,
  332, 365,
  332, 366,
  332, 367,
  332, 368,
  332, 372,
  332, 375,
  332, 377,
  332, 380,
  332, 382,
  332, 384,
  332, 385,
  332, 386,
  332, 387,
  332, 391,
  332, 392,
  332, 393,
  332, 395,
  332, 396,
  332, 397,
  332, 399,
  332, 400,
  332, 402,
  332, 403,
  332, 404,
  332, 405,
  332, 409,
  332, 411,
  332, 412,
  332, 413,
  332, 418,
  332, 423,
  332, 427,
  332, 428,
  332, 429,
  332, 433,
  332, 435,
  332, 436,
  332, 437,
  332, 438,
  332, 440,
  332, 441,
  332, 442,
  332, 443,
  332, 445,
  332, 446,
  332, 448,
  332, 449,
  332, 450,
  332, 451,
  332, 455,
  332, 460,
  332, 462,
  332, 464,
  332, 469,
  332, 472,
  332, 474,
  332, 477,
  332, 485,
  332, 486,
  332, 492,
  332, 493,
  332, 495,
  332, 497,
  332, 499,
  333, 334,
  333, 340,
  333, 343,
  333, 345,
  333, 349,
  333, 350,
  333, 352,
  333, 353,
  333, 355,
  333, 356,
  333, 357,
  333, 358,
  333, 359,
  333, 360,
  333, 364,
  333, 365,
  333, 366,
  333, 370,
  333, 371,
  333, 372,
  333, 373,
  333, 374,
  333, 375,
  333, 378,
  333, 387,
  333, 388,
  333, 389,
  333, 390,
  333, 393,
  333, 396,
  333, 397,
  333, 398,
  333, 402,
  333, 403,
  333, 405,
  333, 406,
  333, 409,
  333, 414,
  333, 415,
  333, 416,
  333, 417,
  333, 424,
  333, 425,
  333, 427,
  333, 431,
  333, 432,
  333, 435,
  333, 436,
  333, 439,
  333, 441,
  333, 442,
  333, 444,
  333, 448,
  333, 451,
  333, 454,
  333, 456,
  333, 457,
  333, 459,
  333, 460,
  333, 463,
  333, 464,
  333, 466,
  333, 467,
  333, 468,
  333, 470,
  333, 472,
  333, 473,
  333, 474,
  333, 480,
  333, 481,
  333, 482,
  333, 486,
  333, 487,
  333, 488,
  333, 489,
  333, 493,
  333, 495,
  333, 498,
  333, 499,
  334, 336,
  334, 337,
  334, 339,
  334, 342,
  334, 343,
  334, 345,
  334, 346,
  334, 347,
  334, 348,
  334, 349,
  334, 350,
  334, 353,
  334, 354,
  334, 359,
  334, 360,
  334, 361,
  334, 362,
  334, 366,
  334, 368,
  334, 369,
  334, 374,
  334, 376,
  334, 379,
  334, 383,
  334, 385,
  334, 388,
  334, 395,
  334, 396,
  334, 399,
  334, 401,
  334, 402,
  334, 403,
  334, 405,
  334, 406,
  334, 409,
  334, 414,
  334, 416,
  334, 417,
  334, 419,
  334, 420,
  334, 421,
  334, 423,
  334, 425,
  334, 428,
  334, 429,
  334, 430,
  334, 431,
  334, 432,
  334, 435,
  334, 436,
  334, 437,
  334, 438,
  334, 440,
  334, 441,
  334, 442,
  334, 443,
  334, 444,
  334, 446,
  334, 449,
  334, 452,
  334, 455,
  334, 461,
  334, 462,
  334, 464,
  334, 475,
  334, 476,
  334, 477,
  334, 479,
  334, 480,
  334, 483,
  334, 486,
  334, 488,
  334, 489,
  334, 491,
  334, 493,
  334, 494,
  334, 496,
  334, 498,
  334, 499,
  335, 337,
  335, 338,
  335, 339,
  335, 340,
  335, 342,
  335, 344,
  335, 345,
  335, 346,
  335, 347,
  335, 348,
  335, 349,
  335, 352,
  335, 354,
  335, 355,
  335, 357,
  335, 359,
  335, 360,
  335, 363,
  335, 365,
  335, 369,
  335, 371,
  335, 372,
  335, 373,
  335, 374,
  335, 376,
  335, 377,
  335, 378,
  335, 379,
  335, 381,
  335, 385,
  335, 387,
  335, 388,
  335, 389,
  335, 392,
  335, 393,
  335, 394,
  335, 396,
  335, 400,
  335, 401,
  335, 409,
  335, 411,
  335, 413,
  335, 417,
  335, 418,
  335, 419,
  335, 422,
  335, 424,
  335, 425,
  335, 427,
  335, 428,
  335, 429,
  335, 432,
  335, 435,
  335, 436,
  335, 440,
  335, 441,
  335, 443,
  335, 445,
  335, 447,
  335, 448,
  335, 449,
  335, 452,
  335, 454,
  335, 455,
  335, 456,
  335, 460,
  335, 461,
  335, 463,
  335, 465,
  335, 466,
  335, 467,
  335, 469,
  335, 471,
  335, 473,
  335, 476,
  335, 477,
  335, 479,
  335, 482,
  335, 486,
  335, 487,
  335, 488,
  335, 489,
  335, 490,
  335, 491,
  335, 492,
  335, 496,
  335, 498,
  336, 339,
  336, 340,
  336, 342,
  336, 343,
  336, 347,
  336, 348,
  336, 350,
  336, 353,
  336, 354,
  336, 355,
  336, 356,
  336, 361,
  336, 363,
  336, 364,
  336, 366,
  336, 368,
  336, 370,
  336, 372,
  336, 373,
  336, 377,
  336, 379,
  336, 380,
  336, 382,
  336, 388,
  336, 389,
  336, 392,
  336, 393,
  336, 394,
  336, 395,
  336, 396,
  336, 397,
  336, 399,
  336, 400,
  336, 402,
  336, 405,
  336, 406,
  336, 407,
  336, 408,
  336, 410,
  336, 411,
  336, 414,
  336, 416,
  336, 417,
  336, 419,
  336, 420,
  336, 422,
  336, 425,
  336, 428,
  336, 429,
  336, 432,
  336, 433,
  336, 434,
  336, 436,
  336, 441,
  336, 444,
  336, 449,
  336, 451,
  336, 452,
  336, 454,
  336, 455,
  336, 456,
  336, 459,
  336, 463,
  336, 464,
  336, 467,
  336, 468,
  336, 470,
  336, 472,
  336, 474,
  336, 476,
  336, 482,
  336, 484,
  336, 486,
  336, 488,
  336, 489,
  336, 490,
  336, 491,
  336, 492,
  336, 493,
  336, 498,
  337, 339,
  337, 343,
  337, 344,
  337, 347,
  337, 348,
  337, 350,
  337, 351,
  337, 355,
  337, 356,
  337, 357,
  337, 360,
  337, 362,
  337, 367,
  337, 372,
  337, 373,
  337, 374,
  337, 375,
  337, 376,
  337, 377,
  337, 379,
  337, 383,
  337, 386,
  337, 390,
  337, 391,
  337, 392,
  337, 396,
  337, 397,
  337, 399,
  337, 401,
  337, 402,
  337, 403,
  337, 404,
  337, 409,
  337, 411,
  337, 412,
  337, 413,
  337, 414,
  337, 418,
  337, 421,
  337, 422,
  337, 423,
  337, 425,
  337, 427,
  337, 428,
  337, 429,
  337, 430,
  337, 431,
  337, 432,
  337, 434,
  337, 436,
  337, 437,
  337, 439,
  337, 440,
  337, 442,
  337, 443,
  337, 445,
  337, 452,
  337, 454,
  337, 455,
  337, 457,
  337, 458,
  337, 459,
  337, 460,
  337, 463,
  337, 466,
  337, 469,
  337, 472,
  337, 475,
  337, 478,
  337, 482,
  337, 483,
  337, 485,
  337, 486,
  337, 487,
  337, 488,
  337, 490,
  337, 491,
  337, 492,
  337, 493,
  337, 494,
  337, 497,
  337, 499,
  337, 500,
  338, 345,
  338, 346,
  338, 347,
  338, 349,
  338, 353,
  338, 354,
  338, 355,
  338, 357,
  338, 359,
  338, 360,
  338, 361,
  338, 363,
  338, 364,
  338, 365,
  338, 368,
  338, 370,
  338, 371,
  338, 372,
  338, 378,
  338, 379,
  338, 380,
  338, 381,
  338, 382,
  338, 384,
  338, 385,
  338, 387,
  338, 388,
  338, 390,
  338, 391,
  338, 394,
  338, 395,
  338, 397,
  338, 405,
  338, 408,
  338, 410,
  338, 411,
  338, 413,
  338, 415,
  338, 418,
  338, 421,
  338, 427,
  338, 428,
  338, 431,
  338, 433,
  338, 434,
  338, 437,
  338, 438,
  338, 440,
  338, 442,
  338, 444,
  338, 448,
  338, 450,
  338, 453,
  338, 454,
  338, 455,
  338, 457,
  338, 459,
  338, 460,
  338, 461,
  338, 463,
  338, 465,
  338, 466,
  338, 468,
  338, 470,
  338, 471,
  338, 472,
  338, 475,
  338, 477,
  338, 478,
  338, 482,
  338, 486,
  338, 487,
  338, 488,
  338, 489,
  338, 491,
  338, 493,
  338, 494,
  338, 495,
  338, 497,
  338, 500,
  339, 341,
  339, 342,
  339, 343,
  339, 345,
  339, 347,
  339, 348,
  339, 350,
  339, 351,
  339, 356,
  339, 357,
  339, 365,
  339, 366,
  339, 367,
  339, 368,
  339, 370,
  339, 371,
  339, 373,
  339, 377,
  339, 378,
  339, 381,
  339, 383,
  339, 384,
  339, 388,
  339, 389,
  339, 390,
  339, 394,
  339, 395,
  339, 396,
  339, 397,
  339, 398,
  339, 401,
  339, 403,
  339, 404,
  339, 405,
  339, 406,
  339, 407,
  339, 409,
  339, 410,
  339, 411,
  339, 413,
  339, 417,
  339, 418,
  339, 420,
  339, 424,
  339, 425,
  339, 426,
  339, 427,
  339, 428,
  339, 430,
  339, 431,
  339, 435,
  339, 436,
  339, 437,
  339, 440,
  339, 443,
  339, 444,
  339, 446,
  339, 447,
  339, 448,
  339, 451,
  339, 452,
  339, 454,
  339, 455,
  339, 457,
  339, 461,
  339, 462,
  339, 463,
  339, 467,
  339, 468,
  339, 472,
  339, 474,
  339, 477,
  339, 478,
  339, 480,
  339, 481,
  339, 483,
  339, 484,
  339, 487,
  339, 489,
  339, 493,
  339, 495,
  339, 497,
  340, 341,
  340, 345,
  340, 347,
  340, 348,
  340, 349,
  340, 351,
  340, 352,
  340, 353,
  340, 356,
  340, 357,
  340, 358,
  340, 359,
  340, 363,
  340, 364,
  340, 365,
  340, 366,
  340, 367,
  340, 368,
  340, 369,
  340, 371,
  340, 372,
  340, 373,
  340, 378,
  340, 379,
  340, 382,
  340, 384,
  340, 385,
  340, 386,
  340, 388,
  340, 389,
  340, 390,
  340, 393,
  340, 396,
  340, 397,
  340, 400,
  340, 401,
  340, 403,
  340, 405,
  340, 407,
  340, 409,
  340, 411,
  340, 415,
  340, 416,
  340, 418,
  340, 419,
  340, 420,
  340, 421,
  340, 424,
  340, 426,
  340, 428,
  340, 430,
  340, 432,
  340, 436,
  340, 437,
  340, 439,
  340, 440,
  340, 441,
  340, 442,
  340, 443,
  340, 444,
  340, 448,
  340, 449,
  340, 450,
  340, 451,
  340, 453,
  340, 454,
  340, 460,
  340, 462,
  340, 463,
  340, 464,
  340, 465,
  340, 466,
  340, 472,
  340, 474,
  340, 475,
  340, 476,
  340, 477,
  340, 479,
  340, 481,
  340, 482,
  340, 483,
  340, 486,
  340, 488,
  340, 489,
  340, 492,
  340, 493,
  340, 494,
  340, 496,
  340, 497,
  340, 498,
  340, 499,
  340, 500,
  341, 343,
  341, 346,
  341, 347,
  341, 349,
  341, 351,
  341, 352,
  341, 354,
  341, 356,
  341, 357,
  341, 358,
  341, 361,
  341, 362,
  341, 364,
  341, 365,
  341, 367,
  341, 368,
  341, 369,
  341, 370,
  341, 372,
  341, 376,
  341, 379,
  341, 380,
  341, 381,
  341, 383,
  341, 385,
  341, 387,
  341, 388,
  341, 389,
  341, 393,
  341, 394,
  341, 397,
  341, 398,
  341, 401,
  341, 402,
  341, 404,
  341, 405,
  341, 406,
  341, 409,
  341, 412,
  341, 413,
  341, 414,
  341, 416,
  341, 418,
  341, 419,
  341, 420,
  341, 423,
  341, 425,
  341, 426,
  341, 429,
  341, 431,
  341, 433,
  341, 434,
  341, 437,
  341, 440,
  341, 441,
  341, 442,
  341, 444,
  341, 445,
  341, 446,
  341, 450,
  341, 452,
  341, 454,
  341, 455,
  341, 456,
  341, 458,
  341, 460,
  341, 465,
  341, 467,
  341, 470,
  341, 471,
  341, 473,
  341, 474,
  341, 475,
  341, 477,
  341, 480,
  341, 481,
  341, 482,
  341, 483,
  341, 485,
  341, 486,
  341, 488,
  341, 490,
  341, 492,
  341, 495,
  341, 496,
  341, 498,
  342, 343,
  342, 344,
  342, 345,
  342, 348,
  342, 349,
  342, 353,
  342, 355,
  342, 359,
  342, 360,
  342, 361,
  342, 362,
  342, 364,
  342, 366,
  342, 368,
  342, 369,
  342, 375,
  342, 376,
  342, 378,
  342, 379,
  342, 383,
  342, 388,
  342, 389,
  342, 391,
  342, 392,
  342, 393,
  342, 395,
  342, 397,
  342, 400,
  342, 401,
  342, 403,
  342, 404,
  342, 408,
  342, 410,
  342, 411,
  342, 415,
  342, 420,
  342, 422,
  342, 426,
  342, 427,
  342, 429,
  342, 432,
  342, 433,
  342, 435,
  342, 436,
  342, 437,
  342, 438,
  342, 439,
  342, 442,
  342, 445,
  342, 446,
  342, 448,
  342, 453,
  342, 454,
  342, 457,
  342, 458,
  342, 460,
  342, 461,
  342, 462,
  342, 465,
  342, 466,
  342, 467,
  342, 473,
  342, 475,
  342, 476,
  342, 480,
  342, 481,
  342, 482,
  342, 483,
  342, 485,
  342, 487,
  342, 489,
  342, 490,
  342, 491,
  342, 492,
  342, 496,
  342, 497,
  342, 499,
  342, 500,
  343, 344,
  343, 345,
  343, 348,
  343, 351,
  343, 354,
  343, 356,
  343, 357,
  343, 358,
  343, 359,
  343, 361,
  343, 363,
  343, 364,
  343, 365,
  343, 366,
  343, 367,
  343, 369,
  343, 371,
  343, 372,
  343, 375,
  343, 376,
  343, 377,
  343, 379,
  343, 380,
  343, 381,
  343, 382,
  343, 383,
  343, 388,
  343, 389,
  343, 391,
  343, 392,
  343, 393,
  343, 394,
  343, 395,
  343, 396,
  343, 397,
  343, 398,
  343, 399,
  343, 400,
  343, 401,
  343, 406,
  343, 412,
  343, 420,
  343, 421,
  343, 422,
  343, 424,
  343, 425,
  343, 427,
  343, 428,
  343, 430,
  343, 431,
  343, 436,
  343, 438,
  343, 441,
  343, 442,
  343, 446,
  343, 447,
  343, 450,
  343, 451,
  343, 455,
  343, 458,
  343, 459,
  343, 460,
  343, 461,
  343, 463,
  343, 464,
  343, 466,
  343, 467,
  343, 468,
  343, 469,
  343, 470,
  343, 471,
  343, 473,
  343, 475,
  343, 479,
  343, 480,
  343, 481,
  343, 482,
  343, 484,
  343, 485,
  343, 488,
  343, 498,
  343, 500,
  344, 348,
  344, 349,
  344, 350,
  344, 351,
  344, 353,
  344, 355,
  344, 356,
  344, 357,
  344, 359,
  344, 360,
  344, 361,
  344, 363,
  344, 367,
  344, 368,
  344, 370,
  344, 371,
  344, 373,
  344, 374,
  344, 378,
  344, 380,
  344, 381,
  344, 383,
  344, 385,
  344, 387,
  344, 389,
  344, 391,
  344, 393,
  344, 394,
  344, 395,
  344, 398,
  344, 399,
  344, 402,
  344, 403,
  344, 404,
  344, 405,
  344, 406,
  344, 408,
  344, 409,
  344, 411,
  344, 414,
  344, 417,
  344, 420,
  344, 429,
  344, 430,
  344, 433,
  344, 434,
  344, 438,
  344, 439,
  344, 440,
  344, 441,
  344, 444,
  344, 445,
  344, 446,
  344, 448,
  344, 451,
  344, 452,
  344, 453,
  344, 454,
  344, 455,
  344, 457,
  344, 458,
  344, 459,
  344, 465,
  344, 466,
  344, 468,
  344, 469,
  344, 472,
  344, 476,
  344, 479,
  344, 480,
  344, 481,
  344, 484,
  344, 486,
  344, 488,
  344, 492,
  344, 495,
  344, 497,
  344, 498,
  344, 499,
  344, 500,
  345, 347,
  345, 352,
  345, 353,
  345, 356,
  345, 357,
  345, 359,
  345, 361,
  345, 362,
  345, 363,
  345, 364,
  345, 365,
  345, 367,
  345, 370,
  345, 371,
  345, 374,
  345, 375,
  345, 378,
  345, 380,
  345, 381,
  345, 382,
  345, 385,
  345, 386,
  345, 387,
  345, 388,
  345, 389,
  345, 390,
  345, 392,
  345, 393,
  345, 395,
  345, 397,
  345, 399,
  345, 401,
  345, 404,
  345, 406,
  345, 410,
  345, 412,
  345, 413,
  345, 416,
  345, 420,
  345, 423,
  345, 424,
  345, 426,
  345, 428,
  345, 432,
  345, 436,
  345, 438,
  345, 440,
  345, 441,
  345, 447,
  345, 451,
  345, 452,
  345, 454,
  345, 457,
  345, 459,
  345, 463,
  345, 464,
  345, 465,
  345, 466,
  345, 467,
  345, 468,
  345, 470,
  345, 471,
  345, 473,
  345, 477,
  345, 479,
  345, 481,
  345, 488,
  345, 489,
  345, 490,
  345, 492,
  345, 494,
  345, 496,
  345, 497,
  345, 498,
  345, 499,
  346, 347,
  346, 349,
  346, 354,
  346, 356,
  346, 358,
  346, 359,
  346, 360,
  346, 362,
  346, 364,
  346, 367,
  346, 368,
  346, 371,
  346, 374,
  346, 375,
  346, 376,
  346, 378,
  346, 380,
  346, 382,
  346, 383,
  346, 385,
  346, 386,
  346, 387,
  346, 388,
  346, 389,
  346, 394,
  346, 395,
  346, 397,
  346, 399,
  346, 404,
  346, 405,
  346, 406,
  346, 407,
  346, 408,
  346, 409,
  346, 412,
  346, 413,
  346, 416,
  346, 418,
  346, 421,
  346, 425,
  346, 428,
  346, 429,
  346, 430,
  346, 431,
  346, 432,
  346, 433,
  346, 435,
  346, 436,
  346, 439,
  346, 443,
  346, 444,
  346, 445,
  346, 446,
  346, 447,
  346, 450,
  346, 451,
  346, 456,
  346, 460,
  346, 466,
  346, 468,
  346, 469,
  346, 473,
  346, 475,
  346, 478,
  346, 479,
  346, 481,
  346, 483,
  346, 484,
  346, 485,
  346, 488,
  346, 489,
  346, 490,
  346, 493,
  346, 494,
  346, 496,
  346, 497,
  346, 500,
  347, 348,
  347, 349,
  347, 350,
  347, 351,
  347, 352,
  347, 353,
  347, 355,
  347, 357,
  347, 360,
  347, 361,
  347, 363,
  347, 366,
  347, 367,
  347, 370,
  347, 371,
  347, 373,
  347, 374,
  347, 377,
  347, 378,
  347, 379,
  347, 380,
  347, 381,
  347, 382,
  347, 384,
  347, 387,
  347, 389,
  347, 392,
  347, 395,
  347, 396,
  347, 400,
  347, 401,
  347, 402,
  347, 405,
  347, 408,
  347, 411,
  347, 417,
  347, 419,
  347, 420,
  347, 422,
  347, 423,
  347, 429,
  347, 430,
  347, 431,
  347, 432,
  347, 435,
  347, 436,
  347, 437,
  347, 441,
  347, 442,
  347, 446,
  347, 449,
  347, 450,
  347, 452,
  347, 454,
  347, 458,
  347, 461,
  347, 463,
  347, 464,
  347, 466,
  347, 467,
  347, 469,
  347, 471,
  347, 475,
  347, 476,
  347, 481,
  347, 484,
  347, 486,
  347, 488,
  347, 489,
  347, 490,
  347, 492,
  347, 493,
  347, 494,
  347, 497,
  347, 498,
  347, 499,
  347, 500,
  348, 349,
  348, 351,
  348, 355,
  348, 360,
  348, 361,
  348, 364,
  348, 366,
  348, 367,
  348, 368,
  348, 371,
  348, 372,
  348, 377,
  348, 379,
  348, 381,
  348, 382,
  348, 383,
  348, 385,
  348, 386,
  348, 390,
  348, 395,
  348, 396,
  348, 398,
  348, 399,
  348, 404,
  348, 407,
  348, 410,
  348, 413,
  348, 414,
  348, 415,
  348, 419,
  348, 420,
  348, 424,
  348, 425,
  348, 428,
  348, 430,
  348, 431,
  348, 434,
  348, 435,
  348, 436,
  348, 437,
  348, 439,
  348, 440,
  348, 442,
  348, 444,
  348, 445,
  348, 449,
  348, 450,
  348, 451,
  348, 453,
  348, 454,
  348, 459,
  348, 461,
  348, 463,
  348, 464,
  348, 465,
  348, 467,
  348, 473,
  348, 474,
  348, 476,
  348, 477,
  348, 482,
  348, 483,
  348, 484,
  348, 487,
  348, 489,
  348, 491,
  348, 493,
  348, 494,
  348, 495,
  348, 496,
  348, 497,
  348, 498,
  348, 500,
  349, 351,
  349, 355,
  349, 361,
  349, 363,
  349, 365,
  349, 369,
  349, 370,
  349, 372,
  349, 373,
  349, 374,
  349, 378,
  349, 379,
  349, 380,
  349, 381,
  349, 384,
  349, 388,
  349, 389,
  349, 391,
  349, 392,
  349, 393,
  349, 394,
  349, 396,
  349, 397,
  349, 398,
  349, 399,
  349, 400,
  349, 402,
  349, 403,
  349, 404,
  349, 405,
  349, 406,
  349, 409,
  349, 410,
  349, 411,
  349, 415,
  349, 417,
  349, 423,
  349, 429,
  349, 431,
  349, 433,
  349, 435,
  349, 436,
  349, 438,
  349, 440,
  349, 441,
  349, 442,
  349, 445,
  349, 450,
  349, 453,
  349, 454,
  349, 455,
  349, 457,
  349, 459,
  349, 461,
  349, 464,
  349, 467,
  349, 468,
  349, 469,
  349, 471,
  349, 472,
  349, 475,
  349, 480,
  349, 481,
  349, 483,
  349, 486,
  349, 487,
  349, 488,
  349, 489,
  349, 490,
  349, 492,
  349, 494,
  349, 495,
  349, 496,
  349, 497,
  349, 499,
  350, 355,
  350, 356,
  350, 357,
  350, 359,
  350, 360,
  350, 361,
  350, 362,
  350, 367,
  350, 369,
  350, 370,
  350, 373,
  350, 375,
  350, 376,
  350, 377,
  350, 378,
  350, 379,
  350, 383,
  350, 387,
  350, 388,
  350, 390,
  350, 392,
  350, 396,
  350, 397,
  350, 399,
  350, 401,
  350, 403,
  350, 404,
  350, 407,
  350, 409,
  350, 410,
  350, 411,
  350, 413,
  350, 415,
  350, 416,
  350, 417,
  350, 421,
  350, 422,
  350, 424,
  350, 425,
  350, 426,
  350, 428,
  350, 432,
  350, 435,
  350, 436,
  350, 437,
  350, 439,
  350, 440,
  350, 441,
  350, 442,
  350, 443,
  350, 444,
  350, 447,
  350, 449,
  350, 451,
  350, 452,
  350, 454,
  350, 459,
  350, 460,
  350, 461,
  350, 462,
  350, 465,
  350, 469,
  350, 476,
  350, 477,
  350, 478,
  350, 479,
  350, 480,
  350, 481,
  350, 482,
  350, 483,
  350, 485,
  350, 487,
  350, 488,
  350, 492,
  350, 493,
  350, 495,
  350, 496,
  350, 497,
  350, 498,
  350, 499,
  350, 500,
  351, 354,
  351, 356,
  351, 357,
  351, 360,
  351, 364,
  351, 366,
  351, 368,
  351, 370,
  351, 373,
  351, 374,
  351, 375,
  351, 376,
  351, 380,
  351, 381,
  351, 383,
  351, 388,
  351, 398,
  351, 400,
  351, 402,
  351, 403,
  351, 404,
  351, 405,
  351, 409,
  351, 410,
  351, 411,
  351, 412,
  351, 414,
  351, 415,
  351, 416,
  351, 417,
  351, 419,
  351, 420,
  351, 421,
  351, 422,
  351, 425,
  351, 432,
  351, 433,
  351, 438,
  351, 440,
  351, 441,
  351, 444,
  351, 446,
  351, 447,
  351, 449,
  351, 450,
  351, 451,
  351, 452,
  351, 453,
  351, 454,
  351, 457,
  351, 458,
  351, 459,
  351, 461,
  351, 468,
  351, 469,
  351, 470,
  351, 472,
  351, 474,
  351, 475,
  351, 477,
  351, 479,
  351, 480,
  351, 484,
  351, 486,
  351, 487,
  351, 489,
  351, 491,
  351, 492,
  351, 493,
  351, 494,
  351, 495,
  351, 496,
  351, 497,
  351, 500,
  352, 353,
  352, 356,
  352, 357,
  352, 358,
  352, 359,
  352, 360,
  352, 362,
  352, 363,
  352, 364,
  352, 365,
  352, 368,
  352, 369,
  352, 372,
  352, 373,
  352, 375,
  352, 378,
  352, 382,
  352, 383,
  352, 384,
  352, 385,
  352, 386,
  352, 390,
  352, 393,
  352, 394,
  352, 395,
  352, 396,
  352, 398,
  352, 400,
  352, 401,
  352, 403,
  352, 404,
  352, 407,
  352, 408,
  352, 409,
  352, 412,
  352, 413,
  352, 414,
  352, 416,
  352, 417,
  352, 421,
  352, 422,
  352, 427,
  352, 431,
  352, 435,
  352, 436,
  352, 438,
  352, 439,
  352, 440,
  352, 442,
  352, 443,
  352, 445,
  352, 446,
  352, 447,
  352, 451,
  352, 455,
  352, 458,
  352, 460,
  352, 461,
  352, 463,
  352, 465,
  352, 467,
  352, 470,
  352, 472,
  352, 473,
  352, 475,
  352, 476,
  352, 478,
  352, 481,
  352, 483,
  352, 485,
  352, 486,
  352, 489,
  352, 490,
  352, 492,
  352, 494,
  352, 495,
  352, 496,
  352, 498,
  352, 499,
  352, 500,
  353, 358,
  353, 361,
  353, 362,
  353, 363,
  353, 366,
  353, 367,
  353, 369,
  353, 370,
  353, 371,
  353, 376,
  353, 380,
  353, 381,
  353, 382,
  353, 391,
  353, 392,
  353, 399,
  353, 402,
  353, 406,
  353, 408,
  353, 411,
  353, 415,
  353, 418,
  353, 419,
  353, 420,
  353, 422,
  353, 424,
  353, 425,
  353, 428,
  353, 429,
  353, 430,
  353, 433,
  353, 434,
  353, 435,
  353, 439,
  353, 440,
  353, 441,
  353, 442,
  353, 443,
  353, 446,
  353, 448,
  353, 450,
  353, 452,
  353, 454,
  353, 458,
  353, 459,
  353, 460,
  353, 464,
  353, 466,
  353, 467,
  353, 469,
  353, 470,
  353, 473,
  353, 474,
  353, 476,
  353, 477,
  353, 478,
  353, 481,
  353, 483,
  353, 485,
  353, 487,
  353, 488,
  353, 495,
  353, 497,
  353, 499,
  353, 500,
  354, 356,
  354, 357,
  354, 360,
  354, 362,
  354, 365,
  354, 366,
  354, 367,
  354, 373,
  354, 375,
  354, 377,
  354, 381,
  354, 382,
  354, 383,
  354, 384,
  354, 387,
  354, 391,
  354, 392,
  354, 395,
  354, 398,
  354, 399,
  354, 402,
  354, 403,
  354, 404,
  354, 409,
  354, 410,
  354, 412,
  354, 413,
  354, 414,
  354, 415,
  354, 418,
  354, 419,
  354, 420,
  354, 424,
  354, 425,
  354, 426,
  354, 427,
  354, 433,
  354, 435,
  354, 436,
  354, 444,
  354, 445,
  354, 447,
  354, 448,
  354, 449,
  354, 452,
  354, 454,
  354, 455,
  354, 461,
  354, 463,
  354, 465,
  354, 466,
  354, 472,
  354, 474,
  354, 475,
  354, 476,
  354, 477,
  354, 486,
  354, 487,
  354, 488,
  354, 489,
  354, 490,
  354, 491,
  354, 492,
  354, 495,
  354, 496,
  354, 498,
  354, 499,
  355, 356,
  355, 358,
  355, 359,
  355, 360,
  355, 363,
  355, 365,
  355, 366,
  355, 369,
  355, 371,
  355, 374,
  355, 375,
  355, 377,
  355, 378,
  355, 380,
  355, 383,
  355, 384,
  355, 388,
  355, 389,
  355, 390,
  355, 391,
  355, 395,
  355, 398,
  355, 402,
  355, 404,
  355, 405,
  355, 406,
  355, 408,
  355, 410,
  355, 411,
  355, 415,
  355, 416,
  355, 417,
  355, 418,
  355, 421,
  355, 422,
  355, 424,
  355, 425,
  355, 426,
  355, 427,
  355, 429,
  355, 433,
  355, 435,
  355, 436,
  355, 437,
  355, 438,
  355, 442,
  355, 443,
  355, 444,
  355, 445,
  355, 446,
  355, 447,
  355, 448,
  355, 449,
  355, 450,
  355, 452,
  355, 459,
  355, 460,
  355, 461,
  355, 462,
  355, 463,
  355, 466,
  355, 468,
  355, 469,
  355, 471,
  355, 473,
  355, 476,
  355, 477,
  355, 479,
  355, 480,
  355, 485,
  355, 488,
  355, 489,
  355, 491,
  355, 494,
  355, 495,
  355, 496,
  355, 500,
  356, 357,
  356, 358,
  356, 363,
  356, 367,
  356, 370,
  356, 371,
  356, 375,
  356, 378,
  356, 379,
  356, 381,
  356, 382,
  356, 386,
  356, 388,
  356, 389,
  356, 399,
  356, 400,
  356, 401,
  356, 402,
  356, 403,
  356, 406,
  356, 409,
  356, 411,
  356, 412,
  356, 413,
  356, 414,
  356, 415,
  356, 417,
  356, 420,
  356, 424,
  356, 425,
  356, 427,
  356, 430,
  356, 435,
  356, 436,
  356, 437,
  356, 438,
  356, 439,
  356, 441,
  356, 443,
  356, 444,
  356, 447,
  356, 448,
  356, 449,
  356, 450,
  356, 451,
  356, 452,
  356, 454,
  356, 456,
  356, 459,
  356, 466,
  356, 467,
  356, 468,
  356, 469,
  356, 470,
  356, 472,
  356, 475,
  356, 480,
  356, 481,
  356, 483,
  356, 485,
  356, 486,
  356, 487,
  356, 489,
  356, 491,
  356, 492,
  356, 493,
  356, 494,
  356, 496,
  356, 497,
  356, 498,
  356, 499,
  356, 500,
  357, 358,
  357, 359,
  357, 364,
  357, 366,
  357, 367,
  357, 371,
  357, 374,
  357, 375,
  357, 379,
  357, 381,
  357, 383,
  357, 384,
  357, 386,
  357, 388,
  357, 389,
  357, 394,
  357, 398,
  357, 400,
  357, 401,
  357, 402,
  357, 403,
  357, 406,
  357, 407,
  357, 409,
  357, 411,
  357, 413,
  357, 414,
  357, 417,
  357, 418,
  357, 423,
  357, 424,
  357, 425,
  357, 426,
  357, 427,
  357, 432,
  357, 433,
  357, 434,
  357, 436,
  357, 438,
  357, 439,
  357, 441,
  357, 443,
  357, 446,
  357, 447,
  357, 448,
  357, 453,
  357, 455,
  357, 457,
  357, 461,
  357, 463,
  357, 464,
  357, 467,
  357, 468,
  357, 469,
  357, 472,
  357, 473,
  357, 474,
  357, 475,
  357, 478,
  357, 480,
  357, 481,
  357, 482,
  357, 484,
  357, 485,
  357, 486,
  357, 487,
  357, 488,
  357, 490,
  357, 491,
  357, 492,
  357, 493,
  357, 494,
  357, 495,
  357, 496,
  357, 497,
  357, 498,
  357, 499,
  357, 500,
  358, 359,
  358, 361,
  358, 365,
  358, 368,
  358, 370,
  358, 371,
  358, 373,
  358, 375,
  358, 379,
  358, 385,
  358, 386,
  358, 388,
  358, 391,
  358, 393,
  358, 394,
  358, 395,
  358, 396,
  358, 398,
  358, 400,
  358, 403,
  358, 404,
  358, 405,
  358, 409,
  358, 413,
  358, 414,
  358, 417,
  358, 419,
  358, 422,
  358, 424,
  358, 428,
  358, 429,
  358, 430,
  358, 431,
  358, 434,
  358, 435,
  358, 436,
  358, 437,
  358, 441,
  358, 442,
  358, 444,
  358, 445,
  358, 448,
  358, 451,
  358, 452,
  358, 454,
  358, 455,
  358, 456,
  358, 458,
  358, 460,
  358, 463,
  358, 467,
  358, 468,
  358, 472,
  358, 475,
  358, 479,
  358, 480,
  358, 481,
  358, 482,
  358, 483,
  358, 485,
  358, 486,
  358, 487,
  358, 489,
  358, 492,
  358, 493,
  358, 494,
  358, 495,
  358, 497,
  358, 498,
  358, 499,
  359, 360,
  359, 364,
  359, 368,
  359, 370,
  359, 372,
  359, 376,
  359, 379,
  359, 381,
  359, 382,
  359, 386,
  359, 388,
  359, 389,
  359, 390,
  359, 392,
  359, 393,
  359, 397,
  359, 400,
  359, 401,
  359, 402,
  359, 406,
  359, 409,
  359, 412,
  359, 413,
  359, 414,
  359, 416,
  359, 417,
  359, 420,
  359, 423,
  359, 425,
  359, 427,
  359, 429,
  359, 430,
  359, 431,
  359, 435,
  359, 436,
  359, 437,
  359, 438,
  359, 439,
  359, 440,
  359, 442,
  359, 444,
  359, 447,
  359, 448,
  359, 450,
  359, 451,
  359, 452,
  359, 455,
  359, 457,
  359, 458,
  359, 460,
  359, 462,
  359, 463,
  359, 464,
  359, 466,
  359, 467,
  359, 468,
  359, 469,
  359, 470,
  359, 472,
  359, 473,
  359, 474,
  359, 475,
  359, 476,
  359, 477,
  359, 479,
  359, 480,
  359, 483,
  359, 487,
  359, 489,
  359, 491,
  359, 493,
  359, 494,
  359, 495,
  359, 499,
  359, 500,
  360, 362,
  360, 363,
  360, 365,
  360, 368,
  360, 369,
  360, 371,
  360, 374,
  360, 376,
  360, 377,
  360, 378,
  360, 379,
  360, 380,
  360, 381,
  360, 382,
  360, 383,
  360, 385,
  360, 388,
  360, 389,
  360, 393,
  360, 396,
  360, 397,
  360, 399,
  360, 401,
  360, 403,
  360, 404,
  360, 407,
  360, 411,
  360, 412,
  360, 413,
  360, 416,
  360, 417,
  360, 418,
  360, 420,
  360, 426,
  360, 429,
  360, 432,
  360, 433,
  360, 434,
  360, 435,
  360, 437,
  360, 439,
  360, 440,
  360, 441,
  360, 443,
  360, 445,
  360, 447,
  360, 450,
  360, 451,
  360, 452,
  360, 453,
  360, 454,
  360, 456,
  360, 458,
  360, 459,
  360, 460,
  360, 464,
  360, 467,
  360, 468,
  360, 470,
  360, 471,
  360, 472,
  360, 473,
  360, 475,
  360, 476,
  360, 479,
  360, 480,
  360, 481,
  360, 482,
  360, 483,
  360, 489,
  360, 490,
  360, 491,
  360, 492,
  360, 495,
  360, 496,
  360, 497,
  361, 362,
  361, 364,
  361, 365,
  361, 368,
  361, 370,
  361, 375,
  361, 377,
  361, 378,
  361, 379,
  361, 380,
  361, 381,
  361, 385,
  361, 387,
  361, 388,
  361, 389,
  361, 390,
  361, 391,
  361, 395,
  361, 399,
  361, 400,
  361, 403,
  361, 406,
  361, 407,
  361, 409,
  361, 410,
  361, 412,
  361, 413,
  361, 418,
  361, 422,
  361, 423,
  361, 428,
  361, 433,
  361, 434,
  361, 436,
  361, 438,
  361, 439,
  361, 440,
  361, 447,
  361, 448,
  361, 450,
  361, 455,
  361, 456,
  361, 458,
  361, 459,
  361, 460,
  361, 461,
  361, 462,
  361, 465,
  361, 466,
  361, 467,
  361, 468,
  361, 470,
  361, 472,
  361, 475,
  361, 478,
  361, 479,
  361, 483,
  361, 485,
  361, 486,
  361, 488,
  361, 493,
  361, 494,
  361, 496,
  361, 499,
  362, 366,
  362, 369,
  362, 370,
  362, 374,
  362, 375,
  362, 376,
  362, 377,
  362, 378,
  362, 379,
  362, 383,
  362, 384,
  362, 386,
  362, 387,
  362, 389,
  362, 390,
  362, 391,
  362, 392,
  362, 393,
  362, 396,
  362, 398,
  362, 400,
  362, 402,
  362, 404,
  362, 406,
  362, 407,
  362, 412,
  362, 413,
  362, 417,
  362, 418,
  362, 420,
  362, 422,
  362, 423,
  362, 430,
  362, 433,
  362, 436,
  362, 438,
  362, 440,
  362, 442,
  362, 445,
  362, 446,
  362, 449,
  362, 450,
  362, 451,
  362, 452,
  362, 457,
  362, 460,
  362, 462,
  362, 464,
  362, 465,
  362, 466,
  362, 469,
  362, 470,
  362, 472,
  362, 478,
  362, 480,
  362, 482,
  362, 484,
  362, 492,
  362, 493,
  362, 494,
  362, 496,
  362, 497,
  362, 498,
  363, 366,
  363, 367,
  363, 368,
  363, 370,
  363, 373,
  363, 376,
  363, 381,
  363, 382,
  363, 384,
  363, 385,
  363, 386,
  363, 387,
  363, 388,
  363, 389,
  363, 392,
  363, 393,
  363, 394,
  363, 395,
  363, 398,
  363, 399,
  363, 400,
  363, 401,
  363, 404,
  363, 408,
  363, 409,
  363, 412,
  363, 414,
  363, 415,
  363, 417,
  363, 420,
  363, 421,
  363, 422,
  363, 423,
  363, 425,
  363, 426,
  363, 427,
  363, 429,
  363, 432,
  363, 434,
  363, 436,
  363, 442,
  363, 443,
  363, 448,
  363, 449,
  363, 451,
  363, 455,
  363, 456,
  363, 457,
  363, 458,
  363, 461,
  363, 462,
  363, 466,
  363, 468,
  363, 470,
  363, 471,
  363, 473,
  363, 477,
  363, 480,
  363, 483,
  363, 487,
  363, 488,
  363, 490,
  363, 492,
  363, 493,
  363, 494,
  363, 495,
  363, 496,
  363, 497,
  363, 498,
  363, 499,
  364, 365,
  364, 368,
  364, 369,
  364, 371,
  364, 372,
  364, 373,
  364, 374,
  364, 377,
  364, 378,
  364, 386,
  364, 388,
  364, 392,
  364, 393,
  364, 394,
  364, 395,
  364, 396,
  364, 399,
  364, 403,
  364, 404,
  364, 405,
  364, 408,
  364, 409,
  364, 411,
  364, 412,
  364, 413,
  364, 414,
  364, 415,
  364, 417,
  364, 418,
  364, 420,
  364, 422,
  364, 424,
  364, 425,
  364, 429,
  364, 430,
  364, 431,
  364, 432,
  364, 433,
  364, 437,
  364, 438,
  364, 446,
  364, 447,
  364, 448,
  364, 450,
  364, 451,
  364, 452,
  364, 453,
  364, 455,
  364, 456,
  364, 457,
  364, 458,
  364, 459,
  364, 464,
  364, 467,
  364, 469,
  364, 470,
  364, 472,
  364, 474,
  364, 475,
  364, 476,
  364, 478,
  364, 479,
  364, 482,
  364, 484,
  364, 486,
  364, 487,
  364, 489,
  364, 492,
  364, 493,
  364, 494,
  364, 496,
  364, 497,
  364, 499,
  365, 366,
  365, 368,
  365, 371,
  365, 373,
  365, 378,
  365, 379,
  365, 380,
  365, 381,
  365, 382,
  365, 383,
  365, 386,
  365, 389,
  365, 395,
  365, 396,
  365, 397,
  365, 399,
  365, 400,
  365, 404,
  365, 406,
  365, 408,
  365, 410,
  365, 413,
  365, 414,
  365, 416,
  365, 417,
  365, 419,
  365, 420,
  365, 421,
  365, 422,
  365, 424,
  365, 425,
  365, 426,
  365, 427,
  365, 429,
  365, 430,
  365, 431,
  365, 433,
  365, 434,
  365, 436,
  365, 440,
  365, 441,
  365, 443,
  365, 445,
  365, 446,
  365, 449,
  365, 455,
  365, 459,
  365, 461,
  365, 465,
  365, 466,
  365, 467,
  365, 468,
  365, 469,
  365, 470,
  365, 471,
  365, 476,
  365, 477,
  365, 481,
  365, 483,
  365, 487,
  365, 490,
  365, 491,
  365, 492,
  365, 493,
  365, 498,
  365, 499,
  366, 368,
  366, 369,
  366, 370,
  366, 371,
  366, 373,
  366, 375,
  366, 378,
  366, 379,
  366, 382,
  366, 383,
  366, 385,
  366, 386,
  366, 389,
  366, 391,
  366, 392,
  366, 395,
  366, 397,
  366, 398,
  366, 400,
  366, 401,
  366, 403,
  366, 404,
  366, 405,
  366, 406,
  366, 408,
  366, 411,
  366, 412,
  366, 415,
  366, 417,
  366, 418,
  366, 419,
  366, 424,
  366, 426,
  366, 427,
  366, 430,
  366, 431,
  366, 434,
  366, 435,
  366, 436,
  366, 437,
  366, 439,
  366, 440,
  366, 443,
  366, 445,
  366, 446,
  366, 447,
  366, 449,
  366, 450,
  366, 454,
  366, 455,
  366, 457,
  366, 461,
  366, 463,
  366, 466,
  366, 468,
  366, 472,
  366, 473,
  366, 475,
  366, 476,
  366, 478,
  366, 480,
  366, 481,
  366, 484,
  366, 485,
  366, 486,
  366, 488,
  366, 489,
  366, 490,
  366, 492,
  366, 495,
  366, 496,
  366, 500,
  367, 369,
  367, 375,
  367, 376,
  367, 377,
  367, 379,
  367, 383,
  367, 384,
  367, 385,
  367, 386,
  367, 387,
  367, 388,
  367, 389,
  367, 390,
  367, 393,
  367, 394,
  367, 395,
  367, 396,
  367, 398,
  367, 400,
  367, 402,
  367, 405,
  367, 408,
  367, 410,
  367, 411,
  367, 415,
  367, 417,
  367, 418,
  367, 419,
  367, 421,
  367, 422,
  367, 428,
  367, 429,
  367, 434,
  367, 437,
  367, 438,
  367, 439,
  367, 441,
  367, 442,
  367, 445,
  367, 447,
  367, 449,
  367, 450,
  367, 453,
  367, 454,
  367, 455,
  367, 461,
  367, 462,
  367, 465,
  367, 471,
  367, 474,
  367, 476,
  367, 477,
  367, 479,
  367, 482,
  367, 487,
  367, 492,
  367, 495,
  367, 496,
  367, 497,
  367, 499,
  367, 500,
  368, 369,
  368, 370,
  368, 371,
  368, 373,
  368, 374,
  368, 377,
  368, 381,
  368, 382,
  368, 383,
  368, 384,
  368, 386,
  368, 387,
  368, 388,
  368, 390,
  368, 393,
  368, 397,
  368, 399,
  368, 401,
  368, 402,
  368, 403,
  368, 406,
  368, 409,
  368, 414,
  368, 415,
  368, 417,
  368, 418,
  368, 419,
  368, 421,
  368, 423,
  368, 424,
  368, 425,
  368, 426,
  368, 427,
  368, 429,
  368, 432,
  368, 433,
  368, 435,
  368, 436,
  368, 438,
  368, 439,
  368, 440,
  368, 442,
  368, 445,
  368, 446,
  368, 447,
  368, 448,
  368, 454,
  368, 457,
  368, 459,
  368, 460,
  368, 463,
  368, 464,
  368, 465,
  368, 466,
  368, 468,
  368, 469,
  368, 470,
  368, 472,
  368, 473,
  368, 475,
  368, 476,
  368, 477,
  368, 479,
  368, 480,
  368, 482,
  368, 483,
  368, 485,
  368, 487,
  368, 488,
  368, 489,
  368, 490,
  368, 494,
  368, 499,
  368, 500,
  369, 370,
  369, 373,
  369, 374,
  369, 375,
  369, 376,
  369, 378,
  369, 381,
  369, 383,
  369, 385,
  369, 388,
  369, 390,
  369, 391,
  369, 395,
  369, 397,
  369, 400,
  369, 401,
  369, 403,
  369, 405,
  369, 406,
  369, 408,
  369, 409,
  369, 410,
  369, 411,
  369, 414,
  369, 416,
  369, 417,
  369, 420,
  369, 421,
  369, 423,
  369, 425,
  369, 426,
  369, 427,
  369, 429,
  369, 431,
  369, 433,
  369, 435,
  369, 436,
  369, 437,
  369, 438,
  369, 440,
  369, 441,
  369, 443,
  369, 444,
  369, 447,
  369, 448,
  369, 449,
  369, 450,
  369, 451,
  369, 458,
  369, 459,
  369, 462,
  369, 463,
  369, 467,
  369, 468,
  369, 470,
  369, 471,
  369, 476,
  369, 478,
  369, 482,
  369, 483,
  369, 484,
  369, 486,
  369, 487,
  369, 491,
  369, 495,
  369, 499,
  370, 372,
  370, 373,
  370, 375,
  370, 376,
  370, 377,
  370, 379,
  370, 380,
  370, 383,
  370, 386,
  370, 387,
  370, 389,
  370, 390,
  370, 392,
  370, 394,
  370, 396,
  370, 397,
  370, 398,
  370, 400,
  370, 401,
  370, 402,
  370, 404,
  370, 405,
  370, 406,
  370, 407,
  370, 408,
  370, 409,
  370, 411,
  370, 412,
  370, 413,
  370, 415,
  370, 416,
  370, 418,
  370, 419,
  370, 420,
  370, 421,
  370, 434,
  370, 437,
  370, 438,
  370, 439,
  370, 441,
  370, 442,
  370, 445,
  370, 451,
  370, 452,
  370, 455,
  370, 456,
  370, 461,
  370, 465,
  370, 466,
  370, 469,
  370, 470,
  370, 473,
  370, 474,
  370, 475,
  370, 479,
  370, 480,
  370, 482,
  370, 484,
  370, 487,
  370, 489,
  370, 490,
  370, 491,
  370, 493,
  370, 494,
  370, 497,
  370, 499,
  370, 500,
  371, 372,
  371, 374,
  371, 376,
  371, 379,
  371, 382,
  371, 384,
  371, 385,
  371, 386,
  371, 387,
  371, 392,
  371, 397,
  371, 398,
  371, 399,
  371, 402,
  371, 403,
  371, 405,
  371, 407,
  371, 410,
  371, 412,
  371, 414,
  371, 415,
  371, 418,
  371, 419,
  371, 420,
  371, 421,
  371, 422,
  371, 424,
  371, 425,
  371, 426,
  371, 427,
  371, 431,
  371, 435,
  371, 439,
  371, 441,
  371, 443,
  371, 444,
  371, 447,
  371, 452,
  371, 453,
  371, 455,
  371, 458,
  371, 459,
  371, 460,
  371, 461,
  371, 462,
  371, 463,
  371, 467,
  371, 468,
  371, 471,
  371, 474,
  371, 475,
  371, 479,
  371, 481,
  371, 485,
  371, 486,
  371, 487,
  371, 490,
  371, 491,
  371, 493,
  371, 494,
  371, 495,
  371, 496,
  371, 497,
  371, 500,
  372, 377,
  372, 378,
  372, 382,
  372, 383,
  372, 384,
  372, 385,
  372, 386,
  372, 387,
  372, 389,
  372, 391,
  372, 392,
  372, 395,
  372, 396,
  372, 398,
  372, 399,
  372, 401,
  372, 403,
  372, 405,
  372, 407,
  372, 409,
  372, 411,
  372, 412,
  372, 413,
  372, 414,
  372, 417,
  372, 418,
  372, 421,
  372, 423,
  372, 424,
  372, 427,
  372, 428,
  372, 429,
  372, 430,
  372, 431,
  372, 433,
  372, 435,
  372, 440,
  372, 443,
  372, 450,
  372, 455,
  372, 463,
  372, 466,
  372, 470,
  372, 474,
  372, 477,
  372, 479,
  372, 481,
  372, 483,
  372, 485,
  372, 487,
  372, 492,
  372, 494,
  372, 495,
  372, 496,
  372, 497,
  372, 498,
  372, 499,
  373, 376,
  373, 384,
  373, 385,
  373, 388,
  373, 391,
  373, 392,
  373, 393,
  373, 396,
  373, 399,
  373, 400,
  373, 401,
  373, 404,
  373, 405,
  373, 407,
  373, 408,
  373, 409,
  373, 412,
  373, 413,
  373, 415,
  373, 416,
  373, 417,
  373, 419,
  373, 420,
  373, 421,
  373, 422,
  373, 429,
  373, 430,
  373, 431,
  373, 432,
  373, 433,
  373, 437,
  373, 438,
  373, 440,
  373, 444,
  373, 445,
  373, 446,
  373, 447,
  373, 448,
  373, 451,
  373, 453,
  373, 454,
  373, 459,
  373, 460,
  373, 461,
  373, 465,
  373, 466,
  373, 468,
  373, 469,
  373, 472,
  373, 473,
  373, 475,
  373, 476,
  373, 478,
  373, 481,
  373, 485,
  373, 487,
  373, 489,
  373, 490,
  373, 491,
  373, 495,
  373, 498,
  373, 499,
  374, 376,
  374, 377,
  374, 379,
  374, 381,
  374, 385,
  374, 389,
  374, 390,
  374, 392,
  374, 393,
  374, 394,
  374, 395,
  374, 396,
  374, 397,
  374, 398,
  374, 401,
  374, 403,
  374, 404,
  374, 406,
  374, 407,
  374, 409,
  374, 411,
  374, 414,
  374, 416,
  374, 417,
  374, 421,
  374, 423,
  374, 424,
  374, 426,
  374, 428,
  374, 431,
  374, 432,
  374, 434,
  374, 435,
  374, 437,
  374, 441,
  374, 446,
  374, 450,
  374, 451,
  374, 452,
  374, 455,
  374, 456,
  374, 460,
  374, 468,
  374, 469,
  374, 472,
  374, 473,
  374, 474,
  374, 476,
  374, 478,
  374, 479,
  374, 481,
  374, 483,
  374, 484,
  374, 489,
  374, 497,
  374, 498,
  374, 500,
  375, 376,
  375, 378,
  375, 379,
  375, 382,
  375, 383,
  375, 386,
  375, 387,
  375, 389,
  375, 391,
  375, 395,
  375, 398,
  375, 400,
  375, 402,
  375, 405,
  375, 407,
  375, 408,
  375, 412,
  375, 413,
  375, 417,
  375, 418,
  375, 419,
  375, 420,
  375, 421,
  375, 422,
  375, 426,
  375, 427,
  375, 429,
  375, 431,
  375, 432,
  375, 433,
  375, 434,
  375, 435,
  375, 436,
  375, 439,
  375, 440,
  375, 441,
  375, 442,
  375, 444,
  375, 445,
  375, 446,
  375, 449,
  375, 452,
  375, 454,
  375, 456,
  375, 457,
  375, 459,
  375, 463,
  375, 464,
  375, 466,
  375, 469,
  375, 470,
  375, 472,
  375, 473,
  375, 474,
  375, 476,
  375, 477,
  375, 478,
  375, 489,
  375, 491,
  375, 493,
  375, 494,
  375, 495,
  375, 497,
  375, 498,
  375, 499,
  375, 500,
  376, 378,
  376, 379,
  376, 381,
  376, 384,
  376, 386,
  376, 388,
  376, 389,
  376, 391,
  376, 394,
  376, 396,
  376, 397,
  376, 400,
  376, 401,
  376, 411,
  376, 413,
  376, 414,
  376, 415,
  376, 416,
  376, 417,
  376, 422,
  376, 423,
  376, 425,
  376, 426,
  376, 428,
  376, 429,
  376, 430,
  376, 432,
  376, 435,
  376, 436,
  376, 437,
  376, 438,
  376, 439,
  376, 440,
  376, 441,
  376, 442,
  376, 444,
  376, 447,
  376, 451,
  376, 453,
  376, 454,
  376, 456,
  376, 457,
  376, 458,
  376, 463,
  376, 464,
  376, 468,
  376, 469,
  376, 470,
  376, 472,
  376, 473,
  376, 475,
  376, 476,
  376, 477,
  376, 478,
  376, 479,
  376, 480,
  376, 482,
  376, 484,
  376, 486,
  376, 487,
  376, 488,
  376, 490,
  376, 491,
  376, 492,
  376, 493,
  376, 494,
  376, 495,
  376, 496,
  376, 497,
  376, 500,
  377, 378,
  377, 381,
  377, 382,
  377, 384,
  377, 385,
  377, 387,
  377, 388,
  377, 389,
  377, 390,
  377, 391,
  377, 392,
  377, 394,
  377, 397,
  377, 399,
  377, 401,
  377, 406,
  377, 407,
  377, 408,
  377, 410,
  377, 411,
  377, 412,
  377, 420,
  377, 421,
  377, 425,
  377, 429,
  377, 431,
  377, 436,
  377, 437,
  377, 438,
  377, 439,
  377, 440,
  377, 441,
  377, 445,
  377, 449,
  377, 450,
  377, 451,
  377, 452,
  377, 454,
  377, 455,
  377, 456,
  377, 457,
  377, 459,
  377, 460,
  377, 462,
  377, 463,
  377, 464,
  377, 465,
  377, 466,
  377, 467,
  377, 469,
  377, 471,
  377, 473,
  377, 474,
  377, 476,
  377, 479,
  377, 480,
  377, 483,
  377, 484,
  377, 485,
  377, 486,
  377, 490,
  377, 492,
  377, 494,
  378, 380,
  378, 382,
  378, 383,
  378, 385,
  378, 387,
  378, 389,
  378, 391,
  378, 392,
  378, 393,
  378, 394,
  378, 395,
  378, 396,
  378, 397,
  378, 400,
  378, 401,
  378, 402,
  378, 403,
  378, 407,
  378, 410,
  378, 411,
  378, 412,
  378, 415,
  378, 416,
  378, 418,
  378, 420,
  378, 422,
  378, 423,
  378, 424,
  378, 426,
  378, 427,
  378, 428,
  378, 431,
  378, 432,
  378, 433,
  378, 436,
  378, 437,
  378, 441,
  378, 442,
  378, 445,
  378, 447,
  378, 448,
  378, 449,
  378, 450,
  378, 452,
  378, 455,
  378, 456,
  378, 458,
  378, 459,
  378, 461,
  378, 462,
  378, 463,
  378, 464,
  378, 465,
  378, 466,
  378, 467,
  378, 471,
  378, 472,
  378, 473,
  378, 474,
  378, 475,
  378, 476,
  378, 477,
  378, 480,
  378, 482,
  378, 485,
  378, 488,
  378, 490,
  378, 491,
  378, 492,
  378, 494,
  378, 500,
  379, 386,
  379, 388,
  379, 393,
  379, 396,
  379, 397,
  379, 399,
  379, 403,
  379, 404,
  379, 405,
  379, 406,
  379, 409,
  379, 410,
  379, 411,
  379, 412,
  379, 414,
  379, 416,
  379, 418,
  379, 422,
  379, 424,
  379, 426,
  379, 427,
  379, 428,
  379, 429,
  379, 430,
  379, 431,
  379, 435,
  379, 436,
  379, 439,
  379, 440,
  379, 441,
  379, 442,
  379, 443,
  379, 446,
  379, 449,
  379, 451,
  379, 452,
  379, 456,
  379, 457,
  379, 463,
  379, 466,
  379, 467,
  379, 471,
  379, 473,
  379, 474,
  379, 475,
  379, 479,
  379, 480,
  379, 481,
  379, 482,
  379, 484,
  379, 486,
  379, 487,
  379, 488,
  379, 489,
  379, 490,
  379, 495,
  379, 496,
  379, 499,
  380, 381,
  380, 382,
  380, 388,
  380, 390,
  380, 391,
  380, 392,
  380, 394,
  380, 395,
  380, 396,
  380, 397,
  380, 399,
  380, 400,
  380, 402,
  380, 405,
  380, 409,
  380, 410,
  380, 411,
  380, 412,
  380, 417,
  380, 418,
  380, 419,
  380, 420,
  380, 422,
  380, 423,
  380, 427,
  380, 428,
  380, 437,
  380, 438,
  380, 439,
  380, 440,
  380, 441,
  380, 442,
  380, 446,
  380, 447,
  380, 451,
  380, 452,
  380, 454,
  380, 455,
  380, 457,
  380, 458,
  380, 461,
  380, 462,
  380, 463,
  380, 464,
  380, 465,
  380, 466,
  380, 469,
  380, 470,
  380, 473,
  380, 474,
  380, 475,
  380, 480,
  380, 483,
  380, 487,
  380, 488,
  380, 490,
  380, 491,
  380, 493,
  380, 494,
  380, 495,
  380, 498,
  380, 499,
  381, 384,
  381, 385,
  381, 386,
  381, 390,
  381, 391,
  381, 392,
  381, 393,
  381, 394,
  381, 398,
  381, 400,
  381, 402,
  381, 404,
  381, 406,
  381, 407,
  381, 409,
  381, 410,
  381, 411,
  381, 414,
  381, 416,
  381, 417,
  381, 420,
  381, 422,
  381, 423,
  381, 425,
  381, 427,
  381, 428,
  381, 429,
  381, 430,
  381, 433,
  381, 434,
  381, 439,
  381, 441,
  381, 442,
  381, 443,
  381, 445,
  381, 447,
  381, 450,
  381, 452,
  381, 453,
  381, 455,
  381, 457,
  381, 458,
  381, 459,
  381, 461,
  381, 465,
  381, 468,
  381, 469,
  381, 470,
  381, 477,
  381, 481,
  381, 486,
  381, 493,
  381, 494,
  381, 497,
  381, 498,
  381, 500,
  382, 383,
  382, 384,
  382, 387,
  382, 388,
  382, 390,
  382, 393,
  382, 394,
  382, 395,
  382, 396,
  382, 398,
  382, 400,
  382, 402,
  382, 403,
  382, 404,
  382, 405,
  382, 406,
  382, 410,
  382, 412,
  382, 414,
  382, 417,
  382, 418,
  382, 419,
  382, 420,
  382, 421,
  382, 423,
  382, 424,
  382, 426,
  382, 427,
  382, 428,
  382, 430,
  382, 431,
  382, 432,
  382, 436,
  382, 438,
  382, 439,
  382, 440,
  382, 442,
  382, 443,
  382, 444,
  382, 446,
  382, 447,
  382, 449,
  382, 451,
  382, 453,
  382, 455,
  382, 456,
  382, 457,
  382, 462,
  382, 465,
  382, 467,
  382, 468,
  382, 469,
  382, 471,
  382, 473,
  382, 476,
  382, 479,
  382, 481,
  382, 482,
  382, 483,
  382, 484,
  382, 486,
  382, 488,
  382, 490,
  382, 493,
  382, 494,
  382, 495,
  382, 496,
  382, 497,
  382, 499,
  383, 385,
  383, 387,
  383, 389,
  383, 392,
  383, 395,
  383, 396,
  383, 398,
  383, 403,
  383, 404,
  383, 408,
  383, 411,
  383, 412,
  383, 413,
  383, 414,
  383, 415,
  383, 417,
  383, 418,
  383, 419,
  383, 423,
  383, 424,
  383, 426,
  383, 427,
  383, 429,
  383, 433,
  383, 434,
  383, 436,
  383, 438,
  383, 440,
  383, 441,
  383, 442,
  383, 443,
  383, 446,
  383, 448,
  383, 449,
  383, 451,
  383, 452,
  383, 458,
  383, 461,
  383, 462,
  383, 463,
  383, 464,
  383, 465,
  383, 466,
  383, 467,
  383, 468,
  383, 471,
  383, 473,
  383, 474,
  383, 475,
  383, 477,
  383, 481,
  383, 482,
  383, 483,
  383, 485,
  383, 486,
  383, 488,
  383, 489,
  383, 491,
  383, 492,
  383, 495,
  383, 498,
  384, 385,
  384, 389,
  384, 390,
  384, 394,
  384, 397,
  384, 398,
  384, 401,
  384, 403,
  384, 404,
  384, 405,
  384, 406,
  384, 407,
  384, 413,
  384, 414,
  384, 416,
  384, 418,
  384, 420,
  384, 422,
  384, 426,
  384, 429,
  384, 437,
  384, 438,
  384, 440,
  384, 441,
  384, 444,
  384, 445,
  384, 446,
  384, 447,
  384, 449,
  384, 452,
  384, 453,
  384, 456,
  384, 458,
  384, 460,
  384, 461,
  384, 464,
  384, 466,
  384, 470,
  384, 474,
  384, 475,
  384, 476,
  384, 481,
  384, 483,
  384, 488,
  384, 489,
  384, 490,
  384, 493,
  384, 494,
  384, 495,
  384, 496,
  384, 497,
  384, 498,
  384, 500,
  385, 386,
  385, 389,
  385, 394,
  385, 395,
  385, 398,
  385, 401,
  385, 403,
  385, 405,
  385, 407,
  385, 409,
  385, 411,
  385, 415,
  385, 416,
  385, 417,
  385, 418,
  385, 419,
  385, 421,
  385, 422,
  385, 425,
  385, 426,
  385, 428,
  385, 429,
  385, 430,
  385, 440,
  385, 441,
  385, 444,
  385, 447,
  385, 449,
  385, 452,
  385, 459,
  385, 463,
  385, 468,
  385, 472,
  385, 475,
  385, 480,
  385, 481,
  385, 484,
  385, 487,
  385, 489,
  385, 493,
  385, 494,
  385, 499,
  385, 500,
  386, 387,
  386, 388,
  386, 389,
  386, 390,
  386, 392,
  386, 393,
  386, 394,
  386, 396,
  386, 397,
  386, 398,
  386, 399,
  386, 402,
  386, 407,
  386, 408,
  386, 409,
  386, 410,
  386, 411,
  386, 415,
  386, 421,
  386, 422,
  386, 425,
  386, 426,
  386, 427,
  386, 428,
  386, 430,
  386, 431,
  386, 438,
  386, 440,
  386, 441,
  386, 442,
  386, 445,
  386, 447,
  386, 449,
  386, 452,
  386, 455,
  386, 457,
  386, 458,
  386, 461,
  386, 462,
  386, 463,
  386, 465,
  386, 466,
  386, 467,
  386, 468,
  386, 470,
  386, 471,
  386, 472,
  386, 473,
  386, 474,
  386, 477,
  386, 480,
  386, 481,
  386, 482,
  386, 485,
  386, 486,
  386, 489,
  386, 490,
  386, 493,
  386, 495,
  386, 498,
  386, 499,
  387, 389,
  387, 392,
  387, 393,
  387, 394,
  387, 395,
  387, 396,
  387, 397,
  387, 399,
  387, 400,
  387, 406,
  387, 408,
  387, 410,
  387, 413,
  387, 414,
  387, 415,
  387, 419,
  387, 421,
  387, 422,
  387, 426,
  387, 429,
  387, 430,
  387, 431,
  387, 433,
  387, 435,
  387, 437,
  387, 439,
  387, 440,
  387, 442,
  387, 450,
  387, 452,
  387, 456,
  387, 457,
  387, 459,
  387, 460,
  387, 462,
  387, 464,
  387, 465,
  387, 466,
  387, 468,
  387, 470,
  387, 473,
  387, 476,
  387, 480,
  387, 481,
  387, 482,
  387, 483,
  387, 484,
  387, 486,
  387, 490,
  387, 491,
  387, 495,
  387, 498,
  387, 499,
  388, 390,
  388, 391,
  388, 393,
  388, 395,
  388, 399,
  388, 400,
  388, 401,
  388, 402,
  388, 403,
  388, 404,
  388, 407,
  388, 408,
  388, 411,
  388, 416,
  388, 418,
  388, 419,
  388, 420,
  388, 424,
  388, 428,
  388, 429,
  388, 430,
  388, 431,
  388, 434,
  388, 436,
  388, 437,
  388, 439,
  388, 440,
  388, 445,
  388, 447,
  388, 448,
  388, 452,
  388, 454,
  388, 457,
  388, 461,
  388, 463,
  388, 464,
  388, 466,
  388, 471,
  388, 472,
  388, 475,
  388, 476,
  388, 482,
  388, 483,
  388, 484,
  388, 485,
  388, 487,
  388, 492,
  388, 494,
  388, 495,
  388, 496,
  388, 498,
  388, 499,
  388, 500,
  389, 391,
  389, 393,
  389, 396,
  389, 397,
  389, 399,
  389, 401,
  389, 403,
  389, 404,
  389, 408,
  389, 411,
  389, 416,
  389, 418,
  389, 419,
  389, 420,
  389, 421,
  389, 422,
  389, 423,
  389, 425,
  389, 427,
  389, 428,
  389, 435,
  389, 438,
  389, 440,
  389, 441,
  389, 442,
  389, 446,
  389, 447,
  389, 449,
  389, 450,
  389, 452,
  389, 453,
  389, 455,
  389, 456,
  389, 460,
  389, 462,
  389, 463,
  389, 464,
  389, 471,
  389, 472,
  389, 473,
  389, 474,
  389, 475,
  389, 478,
  389, 479,
  389, 480,
  389, 482,
  389, 485,
  389, 486,
  389, 488,
  389, 490,
  389, 491,
  389, 492,
  389, 493,
  389, 494,
  389, 496,
  389, 497,
  390, 392,
  390, 396,
  390, 398,
  390, 401,
  390, 402,
  390, 404,
  390, 405,
  390, 406,
  390, 408,
  390, 412,
  390, 416,
  390, 420,
  390, 421,
  390, 423,
  390, 424,
  390, 425,
  390, 426,
  390, 427,
  390, 428,
  390, 429,
  390, 430,
  390, 432,
  390, 433,
  390, 434,
  390, 436,
  390, 438,
  390, 439,
  390, 440,
  390, 442,
  390, 443,
  390, 445,
  390, 447,
  390, 449,
  390, 452,
  390, 453,
  390, 457,
  390, 460,
  390, 461,
  390, 465,
  390, 468,
  390, 469,
  390, 470,
  390, 473,
  390, 474,
  390, 477,
  390, 478,
  390, 479,
  390, 482,
  390, 484,
  390, 486,
  390, 488,
  390, 489,
  390, 490,
  390, 491,
  390, 494,
  390, 496,
  390, 497,
  390, 499,
  390, 500,
  391, 396,
  391, 398,
  391, 400,
  391, 402,
  391, 403,
  391, 405,
  391, 409,
  391, 410,
  391, 416,
  391, 419,
  391, 421,
  391, 423,
  391, 424,
  391, 425,
  391, 427,
  391, 432,
  391, 433,
  391, 436,
  391, 439,
  391, 440,
  391, 441,
  391, 442,
  391, 444,
  391, 446,
  391, 449,
  391, 452,
  391, 453,
  391, 454,
  391, 456,
  391, 463,
  391, 467,
  391, 471,
  391, 472,
  391, 474,
  391, 475,
  391, 477,
  391, 480,
  391, 482,
  391, 483,
  391, 484,
  391, 486,
  391, 488,
  391, 489,
  391, 490,
  391, 491,
  391, 493,
  391, 494,
  391, 496,
  391, 497,
  391, 498,
  391, 499,
  392, 394,
  392, 396,
  392, 398,
  392, 399,
  392, 401,
  392, 402,
  392, 405,
  392, 408,
  392, 412,
  392, 414,
  392, 415,
  392, 416,
  392, 421,
  392, 423,
  392, 426,
  392, 427,
  392, 428,
  392, 429,
  392, 434,
  392, 435,
  392, 439,
  392, 441,
  392, 444,
  392, 445,
  392, 449,
  392, 452,
  392, 453,
  392, 456,
  392, 457,
  392, 460,
  392, 462,
  392, 463,
  392, 467,
  392, 468,
  392, 474,
  392, 475,
  392, 476,
  392, 477,
  392, 478,
  392, 479,
  392, 480,
  392, 483,
  392, 484,
  392, 488,
  392, 489,
  392, 491,
  392, 492,
  392, 494,
  392, 495,
  392, 498,
  392, 499,
  393, 394,
  393, 397,
  393, 399,
  393, 400,
  393, 407,
  393, 408,
  393, 410,
  393, 413,
  393, 414,
  393, 417,
  393, 419,
  393, 420,
  393, 422,
  393, 423,
  393, 430,
  393, 431,
  393, 433,
  393, 434,
  393, 436,
  393, 438,
  393, 439,
  393, 441,
  393, 443,
  393, 444,
  393, 445,
  393, 447,
  393, 449,
  393, 451,
  393, 454,
  393, 455,
  393, 456,
  393, 460,
  393, 461,
  393, 463,
  393, 464,
  393, 466,
  393, 470,
  393, 471,
  393, 472,
  393, 474,
  393, 475,
  393, 476,
  393, 477,
  393, 479,
  393, 480,
  393, 481,
  393, 482,
  393, 485,
  393, 490,
  393, 491,
  393, 494,
  393, 495,
  393, 496,
  393, 497,
  393, 498,
  393, 499,
  393, 500,
  394, 395,
  394, 396,
  394, 397,
  394, 399,
  394, 400,
  394, 403,
  394, 404,
  394, 406,
  394, 410,
  394, 411,
  394, 412,
  394, 415,
  394, 417,
  394, 418,
  394, 421,
  394, 422,
  394, 424,
  394, 428,
  394, 429,
  394, 430,
  394, 433,
  394, 434,
  394, 436,
  394, 437,
  394, 438,
  394, 440,
  394, 441,
  394, 442,
  394, 443,
  394, 444,
  394, 446,
  394, 449,
  394, 454,
  394, 456,
  394, 464,
  394, 465,
  394, 466,
  394, 471,
  394, 472,
  394, 475,
  394, 476,
  394, 477,
  394, 478,
  394, 479,
  394, 480,
  394, 486,
  394, 487,
  394, 488,
  394, 489,
  394, 491,
  394, 492,
  394, 495,
  394, 497,
  394, 499,
  394, 500,
  395, 396,
  395, 397,
  395, 398,
  395, 399,
  395, 401,
  395, 404,
  395, 406,
  395, 409,
  395, 411,
  395, 412,
  395, 414,
  395, 416,
  395, 417,
  395, 418,
  395, 420,
  395, 422,
  395, 423,
  395, 427,
  395, 430,
  395, 432,
  395, 433,
  395, 434,
  395, 435,
  395, 437,
  395, 440,
  395, 441,
  395, 442,
  395, 443,
  395, 444,
  395, 445,
  395, 446,
  395, 447,
  395, 448,
  395, 449,
  395, 450,
  395, 454,
  395, 455,
  395, 456,
  395, 463,
  395, 464,
  395, 465,
  395, 466,
  395, 467,
  395, 468,
  395, 470,
  395, 473,
  395, 474,
  395, 475,
  395, 476,
  395, 478,
  395, 479,
  395, 482,
  395, 484,
  395, 486,
  395, 487,
  395, 488,
  395, 489,
  395, 490,
  395, 492,
  395, 493,
  395, 494,
  395, 497,
  395, 498,
  395, 499,
  395, 500,
  396, 399,
  396, 400,
  396, 402,
  396, 404,
  396, 407,
  396, 410,
  396, 412,
  396, 415,
  396, 416,
  396, 417,
  396, 423,
  396, 424,
  396, 425,
  396, 427,
  396, 432,
  396, 433,
  396, 437,
  396, 438,
  396, 440,
  396, 442,
  396, 446,
  396, 451,
  396, 453,
  396, 455,
  396, 456,
  396, 458,
  396, 459,
  396, 462,
  396, 463,
  396, 464,
  396, 465,
  396, 466,
  396, 467,
  396, 468,
  396, 469,
  396, 470,
  396, 471,
  396, 476,
  396, 477,
  396, 480,
  396, 485,
  396, 487,
  396, 488,
  396, 489,
  396, 491,
  396, 492,
  396, 494,
  396, 496,
  396, 500,
  397, 398,
  397, 399,
  397, 400,
  397, 402,
  397, 403,
  397, 404,
  397, 405,
  397, 406,
  397, 407,
  397, 408,
  397, 409,
  397, 410,
  397, 411,
  397, 413,
  397, 416,
  397, 419,
  397, 421,
  397, 423,
  397, 425,
  397, 426,
  397, 427,
  397, 428,
  397, 430,
  397, 433,
  397, 435,
  397, 437,
  397, 438,
  397, 439,
  397, 440,
  397, 445,
  397, 446,
  397, 450,
  397, 451,
  397, 452,
  397, 454,
  397, 455,
  397, 459,
  397, 460,
  397, 463,
  397, 464,
  397, 465,
  397, 466,
  397, 467,
  397, 470,
  397, 471,
  397, 474,
  397, 477,
  397, 478,
  397, 479,
  397, 482,
  397, 484,
  397, 487,
  397, 488,
  397, 492,
  397, 494,
  397, 495,
  397, 497,
  397, 498,
  397, 500,
  398, 399,
  398, 401,
  398, 403,
  398, 404,
  398, 409,
  398, 413,
  398, 415,
  398, 417,
  398, 418,
  398, 419,
  398, 420,
  398, 421,
  398, 422,
  398, 423,
  398, 424,
  398, 425,
  398, 426,
  398, 427,
  398, 428,
  398, 429,
  398, 430,
  398, 433,
  398, 434,
  398, 435,
  398, 436,
  398, 437,
  398, 438,
  398, 439,
  398, 440,
  398, 442,
  398, 443,
  398, 445,
  398, 446,
  398, 447,
  398, 448,
  398, 449,
  398, 451,
  398, 452,
  398, 454,
  398, 455,
  398, 458,
  398, 459,
  398, 460,
  398, 462,
  398, 464,
  398, 466,
  398, 467,
  398, 468,
  398, 469,
  398, 471,
  398, 474,
  398, 477,
  398, 479,
  398, 480,
  398, 481,
  398, 482,
  398, 483,
  398, 484,
  398, 489,
  398, 493,
  398, 494,
  398, 496,
  398, 497,
  398, 498,
  399, 400,
  399, 402,
  399, 403,
  399, 404,
  399, 405,
  399, 407,
  399, 408,
  399, 410,
  399, 412,
  399, 413,
  399, 414,
  399, 415,
  399, 417,
  399, 418,
  399, 419,
  399, 420,
  399, 421,
  399, 422,
  399, 424,
  399, 425,
  399, 429,
  399, 431,
  399, 435,
  399, 436,
  399, 438,
  399, 445,
  399, 446,
  399, 447,
  399, 450,
  399, 452,
  399, 453,
  399, 454,
  399, 455,
  399, 456,
  399, 457,
  399, 460,
  399, 461,
  399, 473,
  399, 480,
  399, 484,
  399, 490,
  399, 496,
  399, 498,
  399, 499,
  400, 401,
  400, 402,
  400, 403,
  400, 405,
  400, 406,
  400, 408,
  400, 409,
  400, 412,
  400, 414,
  400, 416,
  400, 418,
  400, 419,
  400, 421,
  400, 425,
  400, 426,
  400, 428,
  400, 432,
  400, 434,
  400, 435,
  400, 438,
  400, 439,
  400, 441,
  400, 444,
  400, 446,
  400, 448,
  400, 449,
  400, 450,
  400, 451,
  400, 453,
  400, 454,
  400, 456,
  400, 458,
  400, 461,
  400, 463,
  400, 466,
  400, 470,
  400, 471,
  400, 473,
  400, 474,
  400, 475,
  400, 476,
  400, 477,
  400, 479,
  400, 481,
  400, 482,
  400, 483,
  400, 486,
  400, 488,
  400, 490,
  400, 492,
  400, 494,
  400, 495,
  400, 496,
  400, 497,
  400, 498,
  400, 500,
  401, 403,
  401, 406,
  401, 407,
  401, 410,
  401, 411,
  401, 412,
  401, 413,
  401, 414,
  401, 416,
  401, 417,
  401, 423,
  401, 426,
  401, 427,
  401, 428,
  401, 429,
  401, 430,
  401, 431,
  401, 432,
  401, 434,
  401, 438,
  401, 439,
  401, 440,
  401, 441,
  401, 442,
  401, 443,
  401, 446,
  401, 448,
  401, 456,
  401, 457,
  401, 461,
  401, 462,
  401, 463,
  401, 466,
  401, 468,
  401, 472,
  401, 474,
  401, 477,
  401, 479,
  401, 482,
  401, 485,
  401, 486,
  401, 489,
  401, 492,
  401, 493,
  401, 495,
  401, 498,
  402, 404,
  402, 408,
  402, 416,
  402, 423,
  402, 426,
  402, 430,
  402, 432,
  402, 434,
  402, 436,
  402, 437,
  402, 438,
  402, 440,
  402, 443,
  402, 445,
  402, 447,
  402, 449,
  402, 450,
  402, 454,
  402, 456,
  402, 457,
  402, 459,
  402, 460,
  402, 461,
  402, 462,
  402, 467,
  402, 469,
  402, 470,
  402, 471,
  402, 472,
  402, 473,
  402, 474,
  402, 475,
  402, 478,
  402, 480,
  402, 481,
  402, 483,
  402, 484,
  402, 485,
  402, 487,
  402, 490,
  402, 491,
  402, 494,
  402, 495,
  402, 499,
  402, 500,
  403, 404,
  403, 406,
  403, 407,
  403, 409,
  403, 410,
  403, 411,
  403, 414,
  403, 418,
  403, 419,
  403, 423,
  403, 427,
  403, 428,
  403, 429,
  403, 430,
  403, 432,
  403, 433,
  403, 436,
  403, 437,
  403, 439,
  403, 443,
  403, 445,
  403, 446,
  403, 447,
  403, 452,
  403, 456,
  403, 457,
  403, 460,
  403, 462,
  403, 464,
  403, 470,
  403, 472,
  403, 474,
  403, 477,
  403, 478,
  403, 479,
  403, 480,
  403, 481,
  403, 482,
  403, 484,
  403, 489,
  403, 490,
  403, 495,
  403, 496,
  403, 497,
  403, 498,
  403, 499,
  403, 500,
  404, 405,
  404, 407,
  404, 411,
  404, 415,
  404, 416,
  404, 417,
  404, 419,
  404, 420,
  404, 422,
  404, 423,
  404, 424,
  404, 425,
  404, 426,
  404, 428,
  404, 431,
  404, 432,
  404, 433,
  404, 434,
  404, 436,
  404, 438,
  404, 439,
  404, 441,
  404, 444,
  404, 450,
  404, 452,
  404, 453,
  404, 454,
  404, 457,
  404, 458,
  404, 462,
  404, 463,
  404, 467,
  404, 470,
  404, 472,
  404, 478,
  404, 479,
  404, 480,
  404, 481,
  404, 482,
  404, 483,
  404, 487,
  404, 489,
  404, 490,
  404, 491,
  404, 494,
  404, 495,
  404, 496,
  404, 497,
  404, 498,
  404, 500,
  405, 406,
  405, 409,
  405, 412,
  405, 413,
  405, 414,
  405, 415,
  405, 418,
  405, 420,
  405, 422,
  405, 425,
  405, 426,
  405, 428,
  405, 429,
  405, 432,
  405, 435,
  405, 436,
  405, 438,
  405, 439,
  405, 440,
  405, 442,
  405, 444,
  405, 445,
  405, 448,
  405, 450,
  405, 452,
  405, 453,
  405, 454,
  405, 455,
  405, 456,
  405, 458,
  405, 459,
  405, 460,
  405, 461,
  405, 463,
  405, 465,
  405, 467,
  405, 468,
  405, 470,
  405, 473,
  405, 479,
  405, 480,
  405, 482,
  405, 483,
  405, 485,
  405, 486,
  405, 490,
  405, 494,
  405, 496,
  406, 407,
  406, 408,
  406, 410,
  406, 411,
  406, 412,
  406, 414,
  406, 415,
  406, 418,
  406, 422,
  406, 423,
  406, 424,
  406, 425,
  406, 426,
  406, 427,
  406, 429,
  406, 431,
  406, 433,
  406, 435,
  406, 437,
  406, 439,
  406, 440,
  406, 442,
  406, 447,
  406, 448,
  406, 451,
  406, 452,
  406, 454,
  406, 455,
  406, 458,
  406, 461,
  406, 462,
  406, 464,
  406, 465,
  406, 466,
  406, 472,
  406, 473,
  406, 475,
  406, 477,
  406, 478,
  406, 479,
  406, 481,
  406, 482,
  406, 484,
  406, 485,
  406, 487,
  406, 488,
  406, 490,
  406, 491,
  406, 493,
  406, 494,
  406, 500,
  407, 410,
  407, 413,
  407, 414,
  407, 417,
  407, 419,
  407, 421,
  407, 427,
  407, 430,
  407, 434,
  407, 435,
  407, 438,
  407, 440,
  407, 443,
  407, 444,
  407, 445,
  407, 446,
  407, 448,
  407, 449,
  407, 450,
  407, 455,
  407, 467,
  407, 468,
  407, 470,
  407, 471,
  407, 473,
  407, 474,
  407, 476,
  407, 480,
  407, 483,
  407, 484,
  407, 485,
  407, 490,
  407, 491,
  407, 493,
  407, 498,
  407, 500,
  408, 409,
  408, 411,
  408, 413,
  408, 416,
  408, 417,
  408, 418,
  408, 420,
  408, 422,
  408, 429,
  408, 431,
  408, 432,
  408, 433,
  408, 435,
  408, 437,
  408, 438,
  408, 439,
  408, 440,
  408, 441,
  408, 444,
  408, 445,
  408, 450,
  408, 451,
  408, 452,
  408, 455,
  408, 456,
  408, 457,
  408, 459,
  408, 461,
  408, 462,
  408, 466,
  408, 467,
  408, 474,
  408, 475,
  408, 477,
  408, 483,
  408, 486,
  408, 487,
  408, 488,
  408, 489,
  408, 492,
  408, 493,
  408, 494,
  408, 495,
  408, 496,
  408, 497,
  409, 410,
  409, 412,
  409, 413,
  409, 414,
  409, 415,
  409, 416,
  409, 418,
  409, 419,
  409, 421,
  409, 422,
  409, 425,
  409, 433,
  409, 434,
  409, 438,
  409, 439,
  409, 440,
  409, 445,
  409, 446,
  409, 450,
  409, 452,
  409, 453,
  409, 455,
  409, 460,
  409, 461,
  409, 462,
  409, 464,
  409, 465,
  409, 469,
  409, 470,
  409, 477,
  409, 478,
  409, 484,
  409, 486,
  409, 488,
  409, 490,
  409, 494,
  409, 496,
  409, 497,
  409, 498,
  409, 499,
  410, 412,
  410, 416,
  410, 417,
  410, 418,
  410, 419,
  410, 420,
  410, 421,
  410, 422,
  410, 423,
  410, 425,
  410, 426,
  410, 427,
  410, 432,
  410, 433,
  410, 435,
  410, 436,
  410, 437,
  410, 442,
  410, 444,
  410, 445,
  410, 447,
  410, 449,
  410, 450,
  410, 452,
  410, 455,
  410, 458,
  410, 464,
  410, 466,
  410, 467,
  410, 471,
  410, 472,
  410, 473,
  410, 474,
  410, 478,
  410, 479,
  410, 480,
  410, 484,
  410, 487,
  410, 489,
  410, 490,
  410, 492,
  410, 493,
  410, 494,
  410, 496,
  410, 498,
  410, 499,
  411, 412,
  411, 414,
  411, 415,
  411, 417,
  411, 419,
  411, 422,
  411, 423,
  411, 425,
  411, 426,
  411, 428,
  411, 431,
  411, 434,
  411, 436,
  411, 438,
  411, 440,
  411, 442,
  411, 443,
  411, 445,
  411, 446,
  411, 450,
  411, 452,
  411, 453,
  411, 454,
  411, 455,
  411, 459,
  411, 460,
  411, 463,
  411, 466,
  411, 467,
  411, 468,
  411, 469,
  411, 472,
  411, 474,
  411, 475,
  411, 476,
  411, 477,
  411, 478,
  411, 479,
  411, 480,
  411, 481,
  411, 482,
  411, 483,
  411, 489,
  411, 490,
  411, 492,
  411, 493,
  411, 495,
  411, 497,
  411, 500,
  412, 413,
  412, 414,
  412, 415,
  412, 417,
  412, 418,
  412, 419,
  412, 423,
  412, 424,
  412, 425,
  412, 430,
  412, 432,
  412, 442,
  412, 444,
  412, 445,
  412, 446,
  412, 447,
  412, 448,
  412, 450,
  412, 451,
  412, 452,
  412, 453,
  412, 456,
  412, 458,
  412, 459,
  412, 464,
  412, 468,
  412, 470,
  412, 471,
  412, 472,
  412, 474,
  412, 475,
  412, 477,
  412, 479,
  412, 480,
  412, 483,
  412, 484,
  412, 487,
  412, 488,
  412, 489,
  412, 493,
  412, 495,
  412, 496,
  412, 498,
  412, 500,
  413, 416,
  413, 417,
  413, 419,
  413, 420,
  413, 424,
  413, 425,
  413, 426,
  413, 428,
  413, 430,
  413, 432,
  413, 433,
  413, 435,
  413, 436,
  413, 438,
  413, 439,
  413, 444,
  413, 446,
  413, 448,
  413, 450,
  413, 451,
  413, 453,
  413, 458,
  413, 462,
  413, 465,
  413, 470,
  413, 473,
  413, 475,
  413, 476,
  413, 479,
  413, 492,
  413, 495,
  413, 498,
  413, 499,
  413, 500,
  414, 420,
  414, 422,
  414, 423,
  414, 426,
  414, 427,
  414, 428,
  414, 429,
  414, 430,
  414, 431,
  414, 432,
  414, 435,
  414, 438,
  414, 439,
  414, 440,
  414, 442,
  414, 443,
  414, 444,
  414, 446,
  414, 447,
  414, 451,
  414, 453,
  414, 454,
  414, 455,
  414, 457,
  414, 460,
  414, 461,
  414, 462,
  414, 463,
  414, 464,
  414, 469,
  414, 470,
  414, 474,
  414, 482,
  414, 483,
  414, 486,
  414, 487,
  414, 493,
  414, 494,
  414, 496,
  415, 416,
  415, 417,
  415, 418,
  415, 421,
  415, 423,
  415, 424,
  415, 426,
  415, 427,
  415, 428,
  415, 434,
  415, 435,
  415, 438,
  415, 439,
  415, 441,
  415, 442,
  415, 443,
  415, 444,
  415, 445,
  415, 446,
  415, 447,
  415, 449,
  415, 451,
  415, 452,
  415, 453,
  415, 455,
  415, 457,
  415, 458,
  415, 461,
  415, 462,
  415, 464,
  415, 465,
  415, 466,
  415, 467,
  415, 468,
  415, 469,
  415, 471,
  415, 472,
  415, 475,
  415, 476,
  415, 480,
  415, 482,
  415, 484,
  415, 485,
  415, 489,
  415, 490,
  415, 491,
  415, 493,
  415, 500,
  416, 417,
  416, 421,
  416, 423,
  416, 425,
  416, 426,
  416, 427,
  416, 429,
  416, 430,
  416, 431,
  416, 432,
  416, 433,
  416, 435,
  416, 436,
  416, 437,
  416, 440,
  416, 441,
  416, 444,
  416, 446,
  416, 447,
  416, 448,
  416, 449,
  416, 451,
  416, 453,
  416, 454,
  416, 455,
  416, 458,
  416, 459,
  416, 461,
  416, 465,
  416, 466,
  416, 468,
  416, 469,
  416, 472,
  416, 473,
  416, 476,
  416, 478,
  416, 479,
  416, 480,
  416, 482,
  416, 483,
  416, 484,
  416, 486,
  416, 487,
  416, 488,
  416, 494,
  416, 496,
  416, 499,
  416, 500,
  417, 418,
  417, 419,
  417, 421,
  417, 422,
  417, 424,
  417, 425,
  417, 426,
  417, 427,
  417, 429,
  417, 430,
  417, 431,
  417, 432,
  417, 433,
  417, 437,
  417, 439,
  417, 441,
  417, 442,
  417, 443,
  417, 444,
  417, 446,
  417, 447,
  417, 448,
  417, 449,
  417, 452,
  417, 456,
  417, 457,
  417, 458,
  417, 459,
  417, 460,
  417, 461,
  417, 466,
  417, 468,
  417, 470,
  417, 474,
  417, 476,
  417, 483,
  417, 484,
  417, 492,
  417, 498,
  417, 499,
  417, 500,
  418, 421,
  418, 422,
  418, 423,
  418, 424,
  418, 427,
  418, 428,
  418, 436,
  418, 437,
  418, 438,
  418, 441,
  418, 442,
  418, 446,
  418, 448,
  418, 453,
  418, 455,
  418, 456,
  418, 457,
  418, 459,
  418, 462,
  418, 467,
  418, 468,
  418, 469,
  418, 470,
  418, 471,
  418, 474,
  418, 477,
  418, 478,
  418, 479,
  418, 482,
  418, 483,
  418, 488,
  418, 489,
  418, 494,
  418, 497,
  418, 498,
  418, 499,
  418, 500,
  419, 420,
  419, 422,
  419, 426,
  419, 427,
  419, 428,
  419, 430,
  419, 432,
  419, 436,
  419, 439,
  419, 442,
  419, 443,
  419, 445,
  419, 446,
  419, 447,
  419, 449,
  419, 451,
  419, 456,
  419, 457,
  419, 459,
  419, 462,
  419, 463,
  419, 464,
  419, 466,
  419, 467,
  419, 468,
  419, 469,
  419, 470,
  419, 471,
  419, 476,
  419, 477,
  419, 479,
  419, 480,
  419, 484,
  419, 485,
  419, 486,
  419, 487,
  419, 488,
  419, 491,
  419, 498,
  419, 499,
  419, 500,
  420, 421,
  420, 422,
  420, 423,
  420, 425,
  420, 426,
  420, 427,
  420, 428,
  420, 429,
  420, 430,
  420, 435,
  420, 436,
  420, 437,
  420, 438,
  420, 440,
  420, 442,
  420, 445,
  420, 446,
  420, 447,
  420, 449,
  420, 450,
  420, 451,
  420, 457,
  420, 458,
  420, 462,
  420, 463,
  420, 464,
  420, 465,
  420, 466,
  420, 467,
  420, 468,
  420, 469,
  420, 470,
  420, 472,
  420, 475,
  420, 476,
  420, 478,
  420, 479,
  420, 480,
  420, 481,
  420, 483,
  420, 484,
  420, 486,
  420, 487,
  420, 488,
  420, 490,
  420, 492,
  420, 493,
  420, 494,
  420, 495,
  420, 497,
  420, 500,
  421, 422,
  421, 427,
  421, 428,
  421, 433,
  421, 434,
  421, 435,
  421, 437,
  421, 438,
  421, 442,
  421, 443,
  421, 447,
  421, 450,
  421, 453,
  421, 455,
  421, 457,
  421, 461,
  421, 470,
  421, 472,
  421, 474,
  421, 475,
  421, 476,
  421, 479,
  421, 482,
  421, 483,
  421, 484,
  421, 486,
  421, 489,
  421, 492,
  421, 493,
  421, 494,
  421, 495,
  421, 497,
  421, 498,
  421, 499,
  422, 425,
  422, 426,
  422, 427,
  422, 428,
  422, 430,
  422, 432,
  422, 433,
  422, 434,
  422, 435,
  422, 436,
  422, 437,
  422, 438,
  422, 439,
  422, 440,
  422, 444,
  422, 446,
  422, 449,
  422, 450,
  422, 453,
  422, 454,
  422, 456,
  422, 458,
  422, 461,
  422, 463,
  422, 464,
  422, 471,
  422, 472,
  422, 473,
  422, 477,
  422, 478,
  422, 480,
  422, 481,
  422, 484,
  422, 488,
  422, 489,
  422, 491,
  422, 492,
  422, 493,
  422, 495,
  422, 496,
  422, 497,
  422, 498,
  422, 499,
  423, 424,
  423, 426,
  423, 430,
  423, 431,
  423, 432,
  423, 433,
  423, 435,
  423, 436,
  423, 437,
  423, 442,
  423, 444,
  423, 447,
  423, 448,
  423, 451,
  423, 452,
  423, 454,
  423, 457,
  423, 458,
  423, 462,
  423, 467,
  423, 468,
  423, 469,
  423, 472,
  423, 477,
  423, 479,
  423, 482,
  423, 483,
  423, 484,
  423, 485,
  423, 488,
  423, 489,
  423, 490,
  423, 492,
  423, 493,
  423, 495,
  423, 497,
  423, 500,
  424, 425,
  424, 426,
  424, 427,
  424, 429,
  424, 431,
  424, 432,
  424, 434,
  424, 435,
  424, 436,
  424, 437,
  424, 438,
  424, 440,
  424, 441,
  424, 442,
  424, 444,
  424, 445,
  424, 447,
  424, 449,
  424, 452,
  424, 453,
  424, 454,
  424, 457,
  424, 459,
  424, 460,
  424, 463,
  424, 464,
  424, 466,
  424, 469,
  424, 471,
  424, 472,
  424, 474,
  424, 475,
  424, 476,
  424, 477,
  424, 478,
  424, 482,
  424, 490,
  424, 496,
  424, 500,
  425, 426,
  425, 427,
  425, 432,
  425, 433,
  425, 436,
  425, 439,
  425, 440,
  425, 442,
  425, 448,
  425, 449,
  425, 450,
  425, 452,
  425, 453,
  425, 457,
  425, 458,
  425, 460,
  425, 461,
  425, 464,
  425, 467,
  425, 470,
  425, 472,
  425, 473,
  425, 475,
  425, 478,
  425, 479,
  425, 481,
  425, 482,
  425, 483,
  425, 488,
  425, 491,
  425, 495,
  425, 500,
  426, 427,
  426, 432,
  426, 434,
  426, 435,
  426, 438,
  426, 439,
  426, 440,
  426, 441,
  426, 443,
  426, 444,
  426, 445,
  426, 447,
  426, 449,
  426, 454,
  426, 455,
  426, 457,
  426, 460,
  426, 461,
  426, 463,
  426, 465,
  426, 468,
  426, 469,
  426, 470,
  426, 473,
  426, 474,
  426, 475,
  426, 476,
  426, 477,
  426, 478,
  426, 479,
  426, 482,
  426, 486,
  426, 487,
  426, 488,
  426, 489,
  426, 490,
  426, 491,
  426, 492,
  426, 493,
  426, 495,
  426, 496,
  426, 500,
  427, 430,
  427, 431,
  427, 433,
  427, 437,
  427, 438,
  427, 439,
  427, 443,
  427, 444,
  427, 445,
  427, 448,
  427, 449,
  427, 450,
  427, 452,
  427, 456,
  427, 461,
  427, 462,
  427, 463,
  427, 468,
  427, 469,
  427, 470,
  427, 471,
  427, 472,
  427, 473,
  427, 476,
  427, 477,
  427, 478,
  427, 479,
  427, 480,
  427, 486,
  427, 488,
  427, 489,
  427, 490,
  427, 492,
  427, 500,
  428, 431,
  428, 434,
  428, 436,
  428, 437,
  428, 439,
  428, 440,
  428, 441,
  428, 443,
  428, 448,
  428, 454,
  428, 456,
  428, 459,
  428, 460,
  428, 461,
  428, 462,
  428, 464,
  428, 465,
  428, 467,
  428, 468,
  428, 469,
  428, 471,
  428, 474,
  428, 478,
  428, 479,
  428, 480,
  428, 481,
  428, 483,
  428, 484,
  428, 485,
  428, 487,
  428, 494,
  428, 497,
  428, 498,
  428, 499,
  429, 430,
  429, 431,
  429, 435,
  429, 436,
  429, 438,
  429, 439,
  429, 441,
  429, 442,
  429, 444,
  429, 447,
  429, 448,
  429, 449,
  429, 450,
  429, 451,
  429, 452,
  429, 453,
  429, 455,
  429, 458,
  429, 459,
  429, 461,
  429, 464,
  429, 465,
  429, 466,
  429, 467,
  429, 468,
  429, 472,
  429, 474,
  429, 476,
  429, 478,
  429, 481,
  429, 482,
  429, 483,
  429, 487,
  429, 488,
  429, 489,
  429, 492,
  429, 493,
  429, 495,
  429, 496,
  430, 435,
  430, 436,
  430, 440,
  430, 441,
  430, 442,
  430, 443,
  430, 444,
  430, 449,
  430, 450,
  430, 451,
  430, 452,
  430, 455,
  430, 456,
  430, 457,
  430, 460,
  430, 462,
  430, 467,
  430, 472,
  430, 475,
  430, 476,
  430, 477,
  430, 485,
  430, 486,
  430, 489,
  430, 490,
  430, 492,
  430, 493,
  430, 494,
  430, 495,
  430, 496,
  431, 432,
  431, 433,
  431, 436,
  431, 438,
  431, 439,
  431, 441,
  431, 442,
  431, 443,
  431, 444,
  431, 448,
  431, 449,
  431, 450,
  431, 451,
  431, 454,
  431, 456,
  431, 461,
  431, 462,
  431, 463,
  431, 464,
  431, 466,
  431, 467,
  431, 468,
  431, 469,
  431, 470,
  431, 472,
  431, 474,
  431, 477,
  431, 478,
  431, 480,
  431, 481,
  431, 482,
  431, 483,
  431, 484,
  431, 487,
  431, 488,
  431, 499,
  432, 433,
  432, 434,
  432, 435,
  432, 437,
  432, 438,
  432, 440,
  432, 441,
  432, 447,
  432, 448,
  432, 451,
  432, 452,
  432, 454,
  432, 455,
  432, 456,
  432, 458,
  432, 460,
  432, 461,
  432, 462,
  432, 465,
  432, 466,
  432, 468,
  432, 470,
  432, 473,
  432, 474,
  432, 475,
  432, 479,
  432, 482,
  432, 483,
  432, 485,
  432, 488,
  432, 490,
  432, 494,
  432, 496,
  432, 497,
  432, 498,
  432, 500,
  433, 434,
  433, 435,
  433, 438,
  433, 440,
  433, 443,
  433, 444,
  433, 445,
  433, 448,
  433, 450,
  433, 451,
  433, 452,
  433, 457,
  433, 458,
  433, 459,
  433, 460,
  433, 461,
  433, 462,
  433, 467,
  433, 468,
  433, 469,
  433, 475,
  433, 477,
  433, 479,
  433, 481,
  433, 482,
  433, 484,
  433, 485,
  433, 488,
  433, 489,
  433, 490,
  433, 492,
  433, 493,
  433, 496,
  433, 497,
  433, 498,
  433, 499,
  433, 500,
  434, 435,
  434, 437,
  434, 438,
  434, 444,
  434, 448,
  434, 449,
  434, 451,
  434, 452,
  434, 453,
  434, 455,
  434, 456,
  434, 457,
  434, 458,
  434, 459,
  434, 460,
  434, 462,
  434, 468,
  434, 469,
  434, 470,
  434, 471,
  434, 474,
  434, 475,
  434, 476,
  434, 479,
  434, 480,
  434, 486,
  434, 487,
  434, 488,
  434, 489,
  434, 497,
  434, 500,
  435, 436,
  435, 437,
  435, 438,
  435, 439,
  435, 442,
  435, 444,
  435, 447,
  435, 448,
  435, 451,
  435, 454,
  435, 456,
  435, 460,
  435, 461,
  435, 464,
  435, 467,
  435, 468,
  435, 470,
  435, 472,
  435, 474,
  435, 475,
  435, 477,
  435, 478,
  435, 479,
  435, 480,
  435, 481,
  435, 484,
  435, 485,
  435, 486,
  435, 493,
  435, 494,
  435, 499,
  436, 437,
  436, 439,
  436, 442,
  436, 447,
  436, 448,
  436, 449,
  436, 451,
  436, 455,
  436, 457,
  436, 458,
  436, 459,
  436, 460,
  436, 461,
  436, 462,
  436, 463,
  436, 464,
  436, 465,
  436, 467,
  436, 469,
  436, 470,
  436, 476,
  436, 477,
  436, 479,
  436, 480,
  436, 481,
  436, 483,
  436, 484,
  436, 486,
  436, 488,
  436, 490,
  436, 491,
  436, 492,
  436, 493,
  436, 495,
  436, 496,
  436, 499,
  436, 500,
  437, 438,
  437, 441,
  437, 442,
  437, 443,
  437, 444,
  437, 447,
  437, 451,
  437, 452,
  437, 455,
  437, 460,
  437, 463,
  437, 464,
  437, 466,
  437, 468,
  437, 472,
  437, 473,
  437, 476,
  437, 477,
  437, 478,
  437, 481,
  437, 482,
  437, 483,
  437, 485,
  437, 486,
  437, 489,
  437, 490,
  437, 491,
  437, 492,
  437, 493,
  437, 498,
  437, 500,
  438, 439,
  438, 442,
  438, 445,
  438, 452,
  438, 454,
  438, 455,
  438, 456,
  438, 457,
  438, 458,
  438, 460,
  438, 464,
  438, 465,
  438, 466,
  438, 469,
  438, 471,
  438, 472,
  438, 473,
  438, 477,
  438, 480,
  438, 482,
  438, 484,
  438, 485,
  438, 488,
  438, 495,
  438, 496,
  438, 497,
  439, 441,
  439, 442,
  439, 443,
  439, 446,
  439, 449,
  439, 451,
  439, 457,
  439, 458,
  439, 459,
  439, 460,
  439, 461,
  439, 468,
  439, 470,
  439, 471,
  439, 472,
  439, 474,
  439, 478,
  439, 479,
  439, 484,
  439, 485,
  439, 486,
  439, 487,
  439, 488,
  439, 492,
  439, 494,
  439, 495,
  439, 499,
  439, 500,
  440, 441,
  440, 442,
  440, 443,
  440, 444,
  440, 445,
  440, 447,
  440, 450,
  440, 451,
  440, 455,
  440, 460,
  440, 461,
  440, 464,
  440, 465,
  440, 466,
  440, 467,
  440, 468,
  440, 469,
  440, 470,
  440, 471,
  440, 474,
  440, 477,
  440, 480,
  440, 483,
  440, 484,
  440, 485,
  440, 487,
  440, 488,
  440, 489,
  440, 490,
  440, 491,
  440, 492,
  440, 495,
  440, 497,
  440, 499,
  440, 500,
  441, 443,
  441, 444,
  441, 446,
  441, 448,
  441, 453,
  441, 454,
  441, 459,
  441, 460,
  441, 465,
  441, 467,
  441, 468,
  441, 475,
  441, 477,
  441, 478,
  441, 479,
  441, 480,
  441, 481,
  441, 482,
  441, 484,
  441, 487,
  441, 488,
  441, 490,
  441, 491,
  441, 494,
  441, 499,
  441, 500,
  442, 443,
  442, 447,
  442, 448,
  442, 449,
  442, 451,
  442, 453,
  442, 454,
  442, 455,
  442, 459,
  442, 461,
  442, 465,
  442, 467,
  442, 469,
  442, 473,
  442, 476,
  442, 477,
  442, 480,
  442, 483,
  442, 484,
  442, 485,
  442, 486,
  442, 487,
  442, 489,
  442, 492,
  442, 495,
  442, 496,
  442, 498,
  442, 499,
  442, 500,
  443, 444,
  443, 445,
  443, 446,
  443, 449,
  443, 450,
  443, 451,
  443, 452,
  443, 453,
  443, 454,
  443, 461,
  443, 463,
  443, 464,
  443, 465,
  443, 466,
  443, 467,
  443, 469,
  443, 473,
  443, 474,
  443, 476,
  443, 478,
  443, 479,
  443, 480,
  443, 481,
  443, 483,
  443, 486,
  443, 487,
  443, 488,
  443, 492,
  443, 494,
  443, 496,
  443, 497,
  443, 499,
  443, 500,
  444, 447,
  444, 449,
  444, 450,
  444, 451,
  444, 452,
  444, 454,
  444, 455,
  444, 456,
  444, 457,
  444, 458,
  444, 459,
  444, 461,
  444, 463,
  444, 465,
  444, 466,
  444, 467,
  444, 473,
  444, 479,
  444, 481,
  444, 483,
  444, 484,
  444, 485,
  444, 488,
  444, 490,
  444, 491,
  444, 492,
  444, 493,
  444, 494,
  444, 495,
  444, 497,
  444, 498,
  445, 447,
  445, 449,
  445, 450,
  445, 451,
  445, 453,
  445, 454,
  445, 455,
  445, 456,
  445, 458,
  445, 459,
  445, 460,
  445, 461,
  445, 464,
  445, 465,
  445, 466,
  445, 467,
  445, 468,
  445, 469,
  445, 473,
  445, 475,
  445, 476,
  445, 477,
  445, 478,
  445, 480,
  445, 481,
  445, 483,
  445, 485,
  445, 488,
  445, 489,
  445, 490,
  445, 497,
  445, 499,
  445, 500,
  446, 450,
  446, 452,
  446, 453,
  446, 454,
  446, 455,
  446, 456,
  446, 457,
  446, 458,
  446, 459,
  446, 461,
  446, 462,
  446, 463,
  446, 464,
  446, 467,
  446, 468,
  446, 471,
  446, 476,
  446, 478,
  446, 479,
  446, 481,
  446, 483,
  446, 484,
  446, 487,
  446, 488,
  446, 492,
  446, 493,
  446, 495,
  446, 496,
  446, 499,
  446, 500,
  447, 450,
  447, 452,
  447, 453,
  447, 454,
  447, 459,
  447, 461,
  447, 462,
  447, 463,
  447, 464,
  447, 466,
  447, 468,
  447, 469,
  447, 471,
  447, 472,
  447, 476,
  447, 477,
  447, 486,
  447, 487,
  447, 488,
  447, 489,
  447, 490,
  447, 495,
  447, 497,
  447, 498,
  448, 450,
  448, 454,
  448, 457,
  448, 458,
  448, 460,
  448, 463,
  448, 464,
  448, 465,
  448, 468,
  448, 469,
  448, 475,
  448, 476,
  448, 477,
  448, 478,
  448, 481,
  448, 484,
  448, 485,
  448, 487,
  448, 489,
  448, 492,
  449, 451,
  449, 453,
  449, 454,
  449, 455,
  449, 456,
  449, 460,
  449, 461,
  449, 462,
  449, 464,
  449, 466,
  449, 469,
  449, 471,
  449, 473,
  449, 474,
  449, 475,
  449, 478,
  449, 481,
  449, 483,
  449, 485,
  449, 486,
  449, 487,
  449, 489,
  449, 490,
  449, 492,
  449, 497,
  450, 451,
  450, 452,
  450, 453,
  450, 454,
  450, 457,
  450, 458,
  450, 459,
  450, 461,
  450, 467,
  450, 468,
  450, 471,
  450, 472,
  450, 473,
  450, 474,
  450, 475,
  450, 476,
  450, 478,
  450, 479,
  450, 482,
  450, 483,
  450, 485,
  450, 487,
  450, 488,
  450, 489,
  450, 492,
  450, 493,
  450, 494,
  450, 497,
  450, 498,
  450, 499,
  450, 500,
  451, 454,
  451, 456,
  451, 458,
  451, 463,
  451, 464,
  451, 467,
  451, 469,
  451, 470,
  451, 471,
  451, 472,
  451, 474,
  451, 475,
  451, 476,
  451, 480,
  451, 481,
  451, 482,
  451, 483,
  451, 485,
  451, 488,
  451, 489,
  451, 490,
  451, 491,
  451, 492,
  451, 493,
  451, 495,
  451, 498,
  451, 499,
  451, 500,
  452, 453,
  452, 454,
  452, 456,
  452, 463,
  452, 465,
  452, 472,
  452, 473,
  452, 474,
  452, 476,
  452, 477,
  452, 479,
  452, 480,
  452, 482,
  452, 485,
  452, 488,
  452, 489,
  452, 492,
  452, 494,
  452, 495,
  452, 498,
  452, 499,
  453, 456,
  453, 457,
  453, 458,
  453, 460,
  453, 461,
  453, 463,
  453, 466,
  453, 468,
  453, 469,
  453, 470,
  453, 472,
  453, 473,
  453, 475,
  453, 476,
  453, 479,
  453, 480,
  453, 481,
  453, 483,
  453, 484,
  453, 487,
  453, 490,
  453, 491,
  453, 492,
  453, 493,
  453, 495,
  453, 497,
  454, 458,
  454, 461,
  454, 462,
  454, 464,
  454, 465,
  454, 466,
  454, 467,
  454, 468,
  454, 469,
  454, 470,
  454, 472,
  454, 474,
  454, 477,
  454, 478,
  454, 479,
  454, 480,
  454, 483,
  454, 484,
  454, 485,
  454, 490,
  454, 493,
  454, 494,
  454, 500,
  455, 456,
  455, 458,
  455, 461,
  455, 463,
  455, 464,
  455, 466,
  455, 467,
  455, 470,
  455, 475,
  455, 478,
  455, 479,
  455, 481,
  455, 483,
  455, 485,
  455, 488,
  455, 489,
  455, 490,
  455, 493,
  455, 494,
  455, 496,
  455, 498,
  455, 499,
  456, 458,
  456, 459,
  456, 460,
  456, 463,
  456, 469,
  456, 470,
  456, 471,
  456, 472,
  456, 473,
  456, 474,
  456, 475,
  456, 477,
  456, 479,
  456, 480,
  456, 481,
  456, 484,
  456, 485,
  456, 486,
  456, 487,
  456, 492,
  456, 493,
  456, 497,
  456, 498,
  457, 458,
  457, 459,
  457, 460,
  457, 462,
  457, 463,
  457, 464,
  457, 468,
  457, 471,
  457, 473,
  457, 478,
  457, 479,
  457, 480,
  457, 481,
  457, 486,
  457, 487,
  457, 489,
  457, 490,
  457, 495,
  457, 497,
  457, 500,
  458, 459,
  458, 461,
  458, 465,
  458, 467,
  458, 468,
  458, 470,
  458, 473,
  458, 475,
  458, 476,
  458, 477,
  458, 480,
  458, 481,
  458, 483,
  458, 486,
  458, 487,
  458, 488,
  458, 489,
  458, 491,
  458, 492,
  458, 499,
  459, 461,
  459, 463,
  459, 464,
  459, 465,
  459, 467,
  459, 469,
  459, 472,
  459, 474,
  459, 475,
  459, 477,
  459, 481,
  459, 482,
  459, 483,
  459, 486,
  459, 489,
  459, 492,
  459, 493,
  459, 495,
  459, 496,
  460, 463,
  460, 464,
  460, 465,
  460, 466,
  460, 468,
  460, 474,
  460, 475,
  460, 478,
  460, 479,
  460, 480,
  460, 482,
  460, 484,
  460, 485,
  460, 487,
  460, 488,
  460, 490,
  460, 491,
  460, 492,
  460, 494,
  460, 496,
  460, 498,
  461, 462,
  461, 463,
  461, 464,
  461, 466,
  461, 469,
  461, 470,
  461, 472,
  461, 473,
  461, 480,
  461, 482,
  461, 484,
  461, 485,
  461, 486,
  461, 487,
  461, 489,
  461, 490,
  461, 491,
  461, 492,
  461, 496,
  461, 497,
  461, 498,
  461, 499,
  461, 500,
  462, 463,
  462, 464,
  462, 465,
  462, 466,
  462, 468,
  462, 469,
  462, 471,
  462, 472,
  462, 473,
  462, 476,
  462, 477,
  462, 479,
  462, 482,
  462, 484,
  462, 486,
  462, 487,
  462, 490,
  462, 491,
  462, 492,
  462, 494,
  462, 497,
  462, 499,
  462, 500,
  463, 466,
  463, 470,
  463, 471,
  463, 472,
  463, 474,
  463, 476,
  463, 478,
  463, 479,
  463, 481,
  463, 483,
  463, 486,
  463, 490,
  463, 492,
  463, 494,
  463, 496,
  463, 498,
  464, 465,
  464, 466,
  464, 467,
  464, 469,
  464, 470,
  464, 474,
  464, 476,
  464, 478,
  464, 479,
  464, 482,
  464, 483,
  464, 486,
  464, 487,
  464, 490,
  464, 492,
  464, 493,
  464, 496,
  464, 497,
  464, 500,
  465, 467,
  465, 468,
  465, 469,
  465, 472,
  465, 474,
  465, 476,
  465, 477,
  465, 478,
  465, 480,
  465, 484,
  465, 485,
  465, 486,
  465, 487,
  465, 491,
  465, 492,
  465, 493,
  465, 494,
  465, 498,
  465, 499,
  466, 469,
  466, 471,
  466, 473,
  466, 476,
  466, 477,
  466, 478,
  466, 481,
  466, 485,
  466, 486,
  466, 487,
  466, 491,
  466, 493,
  466, 495,
  466, 497,
  467, 469,
  467, 471,
  467, 475,
  467, 476,
  467, 478,
  467, 479,
  467, 482,
  467, 485,
  467, 490,
  467, 492,
  467, 493,
  467, 494,
  467, 498,
  467, 499,
  468, 469,
  468, 471,
  468, 472,
  468, 473,
  468, 474,
  468, 475,
  468, 476,
  468, 478,
  468, 479,
  468, 480,
  468, 481,
  468, 482,
  468, 485,
  468, 488,
  468, 489,
  468, 492,
  468, 494,
  468, 495,
  468, 497,
  468, 498,
  468, 499,
  469, 472,
  469, 473,
  469, 476,
  469, 477,
  469, 483,
  469, 484,
  469, 485,
  469, 487,
  469, 489,
  469, 492,
  469, 495,
  469, 496,
  470, 471,
  470, 472,
  470, 473,
  470, 475,
  470, 477,
  470, 479,
  470, 489,
  470, 491,
  470, 493,
  470, 498,
  470, 500,
  471, 474,
  471, 476,
  471, 479,
  471, 480,
  471, 482,
  471, 483,
  471, 485,
  471, 487,
  471, 488,
  471, 493,
  471, 497,
  471, 500,
  472, 474,
  472, 475,
  472, 476,
  472, 479,
  472, 480,
  472, 484,
  472, 487,
  472, 488,
  472, 490,
  472, 491,
  472, 492,
  472, 493,
  472, 494,
  472, 495,
  472, 496,
  472, 499,
  473, 474,
  473, 476,
  473, 477,
  473, 481,
  473, 482,
  473, 483,
  473, 485,
  473, 487,
  473, 488,
  473, 490,
  473, 493,
  473, 494,
  473, 495,
  473, 496,
  473, 497,
  473, 499,
  474, 475,
  474, 479,
  474, 480,
  474, 484,
  474, 486,
  474, 491,
  474, 494,
  474, 495,
  474, 496,
  474, 500,
  475, 476,
  475, 477,
  475, 478,
  475, 479,
  475, 481,
  475, 487,
  475, 490,
  475, 492,
  475, 494,
  475, 495,
  475, 498,
  476, 478,
  476, 479,
  476, 482,
  476, 483,
  476, 490,
  476, 491,
  476, 498,
  476, 499,
  477, 480,
  477, 481,
  477, 484,
  477, 485,
  477, 489,
  477, 492,
  477, 495,
  477, 497,
  478, 479,
  478, 481,
  478, 482,
  478, 484,
  478, 485,
  478, 488,
  478, 490,
  478, 494,
  478, 495,
  478, 496,
  478, 497,
  478, 498,
  479, 481,
  479, 482,
  479, 483,
  479, 492,
  479, 496,
  479, 497,
  479, 498,
  479, 500,
  480, 484,
  480, 487,
  480, 488,
  480, 492,
  480, 494,
  480, 497,
  480, 498,
  480, 500,
  481, 483,
  481, 486,
  481, 489,
  481, 490,
  481, 493,
  481, 495,
  481, 498,
  481, 499,
  481, 500,
  482, 483,
  482, 484,
  482, 485,
  482, 486,
  482, 488,
  482, 489,
  482, 492,
  482, 493,
  482, 495,
  482, 499,
  483, 484,
  483, 486,
  483, 487,
  483, 488,
  483, 489,
  483, 491,
  483, 493,
  483, 494,
  483, 499,
  483, 500,
  484, 485,
  484, 486,
  484, 487,
  484, 488,
  484, 490,
  484, 491,
  484, 493,
  484, 494,
  484, 496,
  484, 497,
  484, 498,
  485, 487,
  485, 489,
  485, 490,
  485, 491,
  485, 492,
  485, 493,
  485, 497,
  485, 499,
  485, 500,
  486, 489,
  486, 492,
  486, 493,
  486, 494,
  486, 495,
  486, 498,
  486, 499,
  487, 488,
  487, 491,
  487, 492,
  487, 500,
  488, 493,
  488, 494,
  488, 497,
  488, 498,
  488, 499,
  489, 490,
  489, 491,
  489, 495,
  489, 496,
  489, 499,
  490, 492,
  490, 494,
  490, 496,
  490, 499,
  491, 492,
  492, 494,
  492, 496,
  492, 497,
  493, 495,
  493, 496,
  493, 497,
  493, 500,
  494, 497,
  494, 498,
  495, 500,
  496, 497,
  496, 500,
  497, 499,
  497, 500
]);
